*Heading
** Job name: J2D_S3R69SNR_N16_B09_n16_recovery_top Model name: Model-1
** Generated by: Abaqus/CAE 2024
*Preprint, echo=NO, model=NO, history=NO, contact=NO
**
** PARTS
**
*Part, name=part_plate
*Node
      1, 0.0340000018, 0.00200000009
      2, 0.0340000018,           0.
      3, 0.0359999985,           0.
      4, 0.0359999985, 0.00200000009
      5, 0.0340000018, 0.00300000003
      6, 0.0359999985, 0.00300000003
      7, 0.0320000015, 0.00200000009
      8, 0.0320000015,           0.
      9, 0.0320000015, 0.00300000003
     10, 0.0299999993, 0.00200000009
     11, 0.0299999993,           0.
     12, 0.0299999993, 0.00300000003
     13, 0.0280000009, 0.00200000009
     14, 0.0280000009,           0.
     15, 0.0280000009, 0.00300000003
     16, 0.0260000005, 0.00200000009
     17, 0.0260000005,           0.
     18, 0.0260000005, 0.00300000003
     19, 0.0240000002, 0.00200000009
     20, 0.0240000002,           0.
     21, 0.0240000002, 0.00300000003
     22, 0.0219999999, 0.00200000009
     23, 0.0219999999,           0.
     24, 0.0219999999, 0.00300000003
     25, 0.0199999996, 0.00200000009
     26, 0.0199999996,           0.
     27, 0.0199999996, 0.00300000003
     28, 0.0179999992, 0.00200000009
     29, 0.0179999992,           0.
     30, 0.0179999992, 0.00300000003
     31, 0.0160000008, 0.00200000009
     32, 0.0160000008,           0.
     33, 0.0160000008, 0.00300000003
     34, 0.0140000004, 0.00200000009
     35, 0.0140000004,           0.
     36, 0.0140000004, 0.00300000003
     37, 0.0120000001, 0.00200000009
     38, 0.0120000001,           0.
     39, 0.0120000001, 0.00300000003
     40, 0.00999999978, 0.00200000009
     41, 0.00999999978,           0.
     42, 0.00999999978, 0.00300000003
     43, 0.00800000038, 0.00200000009
     44, 0.00800000038,           0.
     45, 0.00800000038, 0.00300000003
     46, 0.00600000005, 0.00200000009
     47, 0.00600000005,           0.
     48, 0.00600000005, 0.00300000003
     49, 0.00400000019, 0.00200000009
     50, 0.00400000019,           0.
     51, 0.00400000019, 0.00300000003
     52, 0.00200000009, 0.00200000009
     53, 0.00200000009,           0.
     54,           0., 0.00200000009
     55,           0.,           0.
     56, 0.00200000009, 0.00300000003
     57,           0., 0.00300000003
     58, 0.0340000018, 0.00150000001
     59, 0.0340000018, 0.00100000005
     60, 0.0340000018, 0.000500000024
     61, 0.0344999991,           0.
     62, 0.0350000001,           0.
     63, 0.0355000012,           0.
     64, 0.0359999985, 0.000500000024
     65, 0.0359999985, 0.00100000005
     66, 0.0359999985, 0.00150000001
     67, 0.0355000012, 0.00200000009
     68, 0.0350000001, 0.00200000009
     69, 0.0344999991, 0.00200000009
     70, 0.0340000018, 0.00249999994
     71, 0.0359999985, 0.00249999994
     72, 0.0355000012, 0.00300000003
     73, 0.0350000001, 0.00300000003
     74, 0.0344999991, 0.00300000003
     75, 0.0320000015, 0.00150000001
     76, 0.0320000015, 0.00100000005
     77, 0.0320000015, 0.000500000024
     78, 0.0324999988,           0.
     79, 0.0329999998,           0.
     80, 0.0335000008,           0.
     81, 0.0335000008, 0.00200000009
     82, 0.0329999998, 0.00200000009
     83, 0.0324999988, 0.00200000009
     84, 0.0320000015, 0.00249999994
     85, 0.0335000008, 0.00300000003
     86, 0.0329999998, 0.00300000003
     87, 0.0324999988, 0.00300000003
     88, 0.0315000005, 0.00200000009
     89, 0.0309999995, 0.00200000009
     90, 0.0305000003, 0.00200000009
     91, 0.0299999993, 0.00150000001
     92, 0.0299999993, 0.00100000005
     93, 0.0299999993, 0.000500000024
     94, 0.0305000003,           0.
     95, 0.0309999995,           0.
     96, 0.0315000005,           0.
     97, 0.0299999993, 0.00249999994
     98, 0.0315000005, 0.00300000003
     99, 0.0309999995, 0.00300000003
    100, 0.0305000003, 0.00300000003
    101, 0.0280000009, 0.00150000001
    102, 0.0280000009, 0.00100000005
    103, 0.0280000009, 0.000500000024
    104,       0.0285,           0.
    105, 0.0289999992,           0.
    106, 0.0295000002,           0.
    107, 0.0295000002, 0.00200000009
    108, 0.0289999992, 0.00200000009
    109,       0.0285, 0.00200000009
    110, 0.0280000009, 0.00249999994
    111, 0.0295000002, 0.00300000003
    112, 0.0289999992, 0.00300000003
    113,       0.0285, 0.00300000003
    114, 0.0260000005, 0.00150000001
    115, 0.0260000005, 0.00100000005
    116, 0.0260000005, 0.000500000024
    117, 0.0264999997,           0.
    118, 0.0270000007,           0.
    119, 0.0274999999,           0.
    120, 0.0274999999, 0.00200000009
    121, 0.0270000007, 0.00200000009
    122, 0.0264999997, 0.00200000009
    123, 0.0260000005, 0.00249999994
    124, 0.0274999999, 0.00300000003
    125, 0.0270000007, 0.00300000003
    126, 0.0264999997, 0.00300000003
    127, 0.0240000002, 0.00150000001
    128, 0.0240000002, 0.00100000005
    129, 0.0240000002, 0.000500000024
    130, 0.0244999994,           0.
    131, 0.0250000004,           0.
    132, 0.0254999995,           0.
    133, 0.0254999995, 0.00200000009
    134, 0.0250000004, 0.00200000009
    135, 0.0244999994, 0.00200000009
    136, 0.0240000002, 0.00249999994
    137, 0.0254999995, 0.00300000003
    138, 0.0250000004, 0.00300000003
    139, 0.0244999994, 0.00300000003
    140, 0.0219999999, 0.00150000001
    141, 0.0219999999, 0.00100000005
    142, 0.0219999999, 0.000500000024
    143, 0.0225000009,           0.
    144,        0.023,           0.
    145, 0.0234999992,           0.
    146, 0.0234999992, 0.00200000009
    147,        0.023, 0.00200000009
    148, 0.0225000009, 0.00200000009
    149, 0.0219999999, 0.00249999994
    150, 0.0234999992, 0.00300000003
    151,        0.023, 0.00300000003
    152, 0.0225000009, 0.00300000003
    153, 0.0199999996, 0.00150000001
    154, 0.0199999996, 0.00100000005
    155, 0.0199999996, 0.000500000024
    156, 0.0205000006,           0.
    157, 0.0209999997,           0.
    158, 0.0215000007,           0.
    159, 0.0215000007, 0.00200000009
    160, 0.0209999997, 0.00200000009
    161, 0.0205000006, 0.00200000009
    162, 0.0199999996, 0.00249999994
    163, 0.0215000007, 0.00300000003
    164, 0.0209999997, 0.00300000003
    165, 0.0205000006, 0.00300000003
    166, 0.0179999992, 0.00150000001
    167, 0.0179999992, 0.00100000005
    168, 0.0179999992, 0.000500000024
    169, 0.0185000002,           0.
    170, 0.0189999994,           0.
    171, 0.0195000004,           0.
    172, 0.0195000004, 0.00200000009
    173, 0.0189999994, 0.00200000009
    174, 0.0185000002, 0.00200000009
    175, 0.0179999992, 0.00249999994
    176, 0.0195000004, 0.00300000003
    177, 0.0189999994, 0.00300000003
    178, 0.0185000002, 0.00300000003
    179, 0.0160000008, 0.00150000001
    180, 0.0160000008, 0.00100000005
    181, 0.0160000008, 0.000500000024
    182, 0.0164999999,           0.
    183, 0.0170000009,           0.
    184, 0.0175000001,           0.
    185, 0.0175000001, 0.00200000009
    186, 0.0170000009, 0.00200000009
    187, 0.0164999999, 0.00200000009
    188, 0.0160000008, 0.00249999994
    189, 0.0175000001, 0.00300000003
    190, 0.0170000009, 0.00300000003
    191, 0.0164999999, 0.00300000003
    192, 0.0140000004, 0.00150000001
    193, 0.0140000004, 0.00100000005
    194, 0.0140000004, 0.000500000024
    195, 0.0144999996,           0.
    196, 0.0149999997,           0.
    197, 0.0154999997,           0.
    198, 0.0154999997, 0.00200000009
    199, 0.0149999997, 0.00200000009
    200, 0.0144999996, 0.00200000009
    201, 0.0140000004, 0.00249999994
    202, 0.0154999997, 0.00300000003
    203, 0.0149999997, 0.00300000003
    204, 0.0144999996, 0.00300000003
    205, 0.0120000001, 0.00150000001
    206, 0.0120000001, 0.00100000005
    207, 0.0120000001, 0.000500000024
    208, 0.0125000002,           0.
    209, 0.0130000003,           0.
    210, 0.0135000004,           0.
    211, 0.0135000004, 0.00200000009
    212, 0.0130000003, 0.00200000009
    213, 0.0125000002, 0.00200000009
    214, 0.0120000001, 0.00249999994
    215, 0.0135000004, 0.00300000003
    216, 0.0130000003, 0.00300000003
    217, 0.0125000002, 0.00300000003
    218, 0.00999999978, 0.00150000001
    219, 0.00999999978, 0.00100000005
    220, 0.00999999978, 0.000500000024
    221, 0.0104999999,           0.
    222, 0.0109999999,           0.
    223,       0.0115,           0.
    224,       0.0115, 0.00200000009
    225, 0.0109999999, 0.00200000009
    226, 0.0104999999, 0.00200000009
    227, 0.00999999978, 0.00249999994
    228,       0.0115, 0.00300000003
    229, 0.0109999999, 0.00300000003
    230, 0.0104999999, 0.00300000003
    231, 0.00800000038, 0.00150000001
    232, 0.00800000038, 0.00100000005
    233, 0.00800000038, 0.000500000024
    234, 0.00850000046,           0.
    235, 0.00899999961,           0.
    236, 0.00949999969,           0.
    237, 0.00949999969, 0.00200000009
    238, 0.00899999961, 0.00200000009
    239, 0.00850000046, 0.00200000009
    240, 0.00800000038, 0.00249999994
    241, 0.00949999969, 0.00300000003
    242, 0.00899999961, 0.00300000003
    243, 0.00850000046, 0.00300000003
    244, 0.00600000005, 0.00150000001
    245, 0.00600000005, 0.00100000005
    246, 0.00600000005, 0.000500000024
    247, 0.00650000013,           0.
    248, 0.00700000022,           0.
    249, 0.00749999983,           0.
    250, 0.00749999983, 0.00200000009
    251, 0.00700000022, 0.00200000009
    252, 0.00650000013, 0.00200000009
    253, 0.00600000005, 0.00249999994
    254, 0.00749999983, 0.00300000003
    255, 0.00700000022, 0.00300000003
    256, 0.00650000013, 0.00300000003
    257, 0.00400000019, 0.00150000001
    258, 0.00400000019, 0.00100000005
    259, 0.00400000019, 0.000500000024
    260, 0.00449999981,           0.
    261, 0.00499999989,           0.
    262, 0.00549999997,           0.
    263, 0.00549999997, 0.00200000009
    264, 0.00499999989, 0.00200000009
    265, 0.00449999981, 0.00200000009
    266, 0.00400000019, 0.00249999994
    267, 0.00549999997, 0.00300000003
    268, 0.00499999989, 0.00300000003
    269, 0.00449999981, 0.00300000003
    270, 0.00200000009, 0.00150000001
    271, 0.00200000009, 0.00100000005
    272, 0.00200000009, 0.000500000024
    273, 0.00249999994,           0.
    274, 0.00300000003,           0.
    275, 0.00350000011,           0.
    276, 0.00350000011, 0.00200000009
    277, 0.00300000003, 0.00200000009
    278, 0.00249999994, 0.00200000009
    279, 0.00150000001, 0.00200000009
    280, 0.00100000005, 0.00200000009
    281, 0.000500000024, 0.00200000009
    282,           0., 0.00150000001
    283,           0., 0.00100000005
    284,           0., 0.000500000024
    285, 0.000500000024,           0.
    286, 0.00100000005,           0.
    287, 0.00150000001,           0.
    288, 0.00200000009, 0.00249999994
    289, 0.00350000011, 0.00300000003
    290, 0.00300000003, 0.00300000003
    291, 0.00249999994, 0.00300000003
    292, 0.00150000001, 0.00300000003
    293, 0.00100000005, 0.00300000003
    294, 0.000500000024, 0.00300000003
    295,           0., 0.00249999994
    296, 0.0344999991, 0.00150000001
    297, 0.0344999991, 0.00100000005
    298, 0.0344999991, 0.000500000024
    299, 0.0350000001, 0.00150000001
    300, 0.0350000001, 0.00100000005
    301, 0.0350000001, 0.000500000024
    302, 0.0355000012, 0.00150000001
    303, 0.0355000012, 0.00100000005
    304, 0.0355000012, 0.000500000024
    305, 0.0344999991, 0.00249999994
    306, 0.0350000001, 0.00249999994
    307, 0.0355000012, 0.00249999994
    308, 0.0324999988, 0.00150000001
    309, 0.0324999988, 0.00100000005
    310, 0.0324999988, 0.000500000024
    311, 0.0329999998, 0.00150000001
    312, 0.0329999998, 0.00100000005
    313, 0.0329999998, 0.000500000024
    314, 0.0335000008, 0.00150000001
    315, 0.0335000008, 0.00100000005
    316, 0.0335000008, 0.000500000024
    317, 0.0324999988, 0.00249999994
    318, 0.0329999998, 0.00249999994
    319, 0.0335000008, 0.00249999994
    320, 0.0315000005, 0.000500000024
    321, 0.0315000005, 0.00100000005
    322, 0.0315000005, 0.00150000001
    323, 0.0309999995, 0.000500000024
    324, 0.0309999995, 0.00100000005
    325, 0.0309999995, 0.00150000001
    326, 0.0305000003, 0.000500000024
    327, 0.0305000003, 0.00100000005
    328, 0.0305000003, 0.00150000001
    329, 0.0305000003, 0.00249999994
    330, 0.0309999995, 0.00249999994
    331, 0.0315000005, 0.00249999994
    332,       0.0285, 0.00150000001
    333,       0.0285, 0.00100000005
    334,       0.0285, 0.000500000024
    335, 0.0289999992, 0.00150000001
    336, 0.0289999992, 0.00100000005
    337, 0.0289999992, 0.000500000024
    338, 0.0295000002, 0.00150000001
    339, 0.0295000002, 0.00100000005
    340, 0.0295000002, 0.000500000024
    341,       0.0285, 0.00249999994
    342, 0.0289999992, 0.00249999994
    343, 0.0295000002, 0.00249999994
    344, 0.0264999997, 0.00150000001
    345, 0.0264999997, 0.00100000005
    346, 0.0264999997, 0.000500000024
    347, 0.0270000007, 0.00150000001
    348, 0.0270000007, 0.00100000005
    349, 0.0270000007, 0.000500000024
    350, 0.0274999999, 0.00150000001
    351, 0.0274999999, 0.00100000005
    352, 0.0274999999, 0.000500000024
    353, 0.0264999997, 0.00249999994
    354, 0.0270000007, 0.00249999994
    355, 0.0274999999, 0.00249999994
    356, 0.0244999994, 0.00150000001
    357, 0.0244999994, 0.00100000005
    358, 0.0244999994, 0.000500000024
    359, 0.0250000004, 0.00150000001
    360, 0.0250000004, 0.00100000005
    361, 0.0250000004, 0.000500000024
    362, 0.0254999995, 0.00150000001
    363, 0.0254999995, 0.00100000005
    364, 0.0254999995, 0.000500000024
    365, 0.0244999994, 0.00249999994
    366, 0.0250000004, 0.00249999994
    367, 0.0254999995, 0.00249999994
    368, 0.0225000009, 0.00150000001
    369, 0.0225000009, 0.00100000005
    370, 0.0225000009, 0.000500000024
    371,        0.023, 0.00150000001
    372,        0.023, 0.00100000005
    373,        0.023, 0.000500000024
    374, 0.0234999992, 0.00150000001
    375, 0.0234999992, 0.00100000005
    376, 0.0234999992, 0.000500000024
    377, 0.0225000009, 0.00249999994
    378,        0.023, 0.00249999994
    379, 0.0234999992, 0.00249999994
    380, 0.0205000006, 0.00150000001
    381, 0.0205000006, 0.00100000005
    382, 0.0205000006, 0.000500000024
    383, 0.0209999997, 0.00150000001
    384, 0.0209999997, 0.00100000005
    385, 0.0209999997, 0.000500000024
    386, 0.0215000007, 0.00150000001
    387, 0.0215000007, 0.00100000005
    388, 0.0215000007, 0.000500000024
    389, 0.0205000006, 0.00249999994
    390, 0.0209999997, 0.00249999994
    391, 0.0215000007, 0.00249999994
    392, 0.0185000002, 0.00150000001
    393, 0.0185000002, 0.00100000005
    394, 0.0185000002, 0.000500000024
    395, 0.0189999994, 0.00150000001
    396, 0.0189999994, 0.00100000005
    397, 0.0189999994, 0.000500000024
    398, 0.0195000004, 0.00150000001
    399, 0.0195000004, 0.00100000005
    400, 0.0195000004, 0.000500000024
    401, 0.0185000002, 0.00249999994
    402, 0.0189999994, 0.00249999994
    403, 0.0195000004, 0.00249999994
    404, 0.0164999999, 0.00150000001
    405, 0.0164999999, 0.00100000005
    406, 0.0164999999, 0.000500000024
    407, 0.0170000009, 0.00150000001
    408, 0.0170000009, 0.00100000005
    409, 0.0170000009, 0.000500000024
    410, 0.0175000001, 0.00150000001
    411, 0.0175000001, 0.00100000005
    412, 0.0175000001, 0.000500000024
    413, 0.0164999999, 0.00249999994
    414, 0.0170000009, 0.00249999994
    415, 0.0175000001, 0.00249999994
    416, 0.0144999996, 0.00150000001
    417, 0.0144999996, 0.00100000005
    418, 0.0144999996, 0.000500000024
    419, 0.0149999997, 0.00150000001
    420, 0.0149999997, 0.00100000005
    421, 0.0149999997, 0.000500000024
    422, 0.0154999997, 0.00150000001
    423, 0.0154999997, 0.00100000005
    424, 0.0154999997, 0.000500000024
    425, 0.0144999996, 0.00249999994
    426, 0.0149999997, 0.00249999994
    427, 0.0154999997, 0.00249999994
    428, 0.0125000002, 0.00150000001
    429, 0.0125000002, 0.00100000005
    430, 0.0125000002, 0.000500000024
    431, 0.0130000003, 0.00150000001
    432, 0.0130000003, 0.00100000005
    433, 0.0130000003, 0.000500000024
    434, 0.0135000004, 0.00150000001
    435, 0.0135000004, 0.00100000005
    436, 0.0135000004, 0.000500000024
    437, 0.0125000002, 0.00249999994
    438, 0.0130000003, 0.00249999994
    439, 0.0135000004, 0.00249999994
    440, 0.0104999999, 0.00150000001
    441, 0.0104999999, 0.00100000005
    442, 0.0104999999, 0.000500000024
    443, 0.0109999999, 0.00150000001
    444, 0.0109999999, 0.00100000005
    445, 0.0109999999, 0.000500000024
    446,       0.0115, 0.00150000001
    447,       0.0115, 0.00100000005
    448,       0.0115, 0.000500000024
    449, 0.0104999999, 0.00249999994
    450, 0.0109999999, 0.00249999994
    451,       0.0115, 0.00249999994
    452, 0.00850000046, 0.00150000001
    453, 0.00850000046, 0.00100000005
    454, 0.00850000046, 0.000500000024
    455, 0.00899999961, 0.00150000001
    456, 0.00899999961, 0.00100000005
    457, 0.00899999961, 0.000500000024
    458, 0.00949999969, 0.00150000001
    459, 0.00949999969, 0.00100000005
    460, 0.00949999969, 0.000500000024
    461, 0.00850000046, 0.00249999994
    462, 0.00899999961, 0.00249999994
    463, 0.00949999969, 0.00249999994
    464, 0.00650000013, 0.00150000001
    465, 0.00650000013, 0.00100000005
    466, 0.00650000013, 0.000500000024
    467, 0.00700000022, 0.00150000001
    468, 0.00700000022, 0.00100000005
    469, 0.00700000022, 0.000500000024
    470, 0.00749999983, 0.00150000001
    471, 0.00749999983, 0.00100000005
    472, 0.00749999983, 0.000500000024
    473, 0.00650000013, 0.00249999994
    474, 0.00700000022, 0.00249999994
    475, 0.00749999983, 0.00249999994
    476, 0.00449999981, 0.00150000001
    477, 0.00449999981, 0.00100000005
    478, 0.00449999981, 0.000500000024
    479, 0.00499999989, 0.00150000001
    480, 0.00499999989, 0.00100000005
    481, 0.00499999989, 0.000500000024
    482, 0.00549999997, 0.00150000001
    483, 0.00549999997, 0.00100000005
    484, 0.00549999997, 0.000500000024
    485, 0.00449999981, 0.00249999994
    486, 0.00499999989, 0.00249999994
    487, 0.00549999997, 0.00249999994
    488, 0.00249999994, 0.00150000001
    489, 0.00249999994, 0.00100000005
    490, 0.00249999994, 0.000500000024
    491, 0.00300000003, 0.00150000001
    492, 0.00300000003, 0.00100000005
    493, 0.00300000003, 0.000500000024
    494, 0.00350000011, 0.00150000001
    495, 0.00350000011, 0.00100000005
    496, 0.00350000011, 0.000500000024
    497, 0.00150000001, 0.00150000001
    498, 0.00100000005, 0.00150000001
    499, 0.000500000024, 0.00150000001
    500, 0.00150000001, 0.00100000005
    501, 0.00100000005, 0.00100000005
    502, 0.000500000024, 0.00100000005
    503, 0.00150000001, 0.000500000024
    504, 0.00100000005, 0.000500000024
    505, 0.000500000024, 0.000500000024
    506, 0.00249999994, 0.00249999994
    507, 0.00300000003, 0.00249999994
    508, 0.00350000011, 0.00249999994
    509, 0.00150000001, 0.00249999994
    510, 0.00100000005, 0.00249999994
    511, 0.000500000024, 0.00249999994
*Element, type=CPE4T
 1,   1,  58, 296,  69
 2,  58,  59, 297, 296
 3,  59,  60, 298, 297
 4,  60,   2,  61, 298
 5,  69, 296, 299,  68
 6, 296, 297, 300, 299
 7, 297, 298, 301, 300
 8, 298,  61,  62, 301
 9,  68, 299, 302,  67
10, 299, 300, 303, 302
11, 300, 301, 304, 303
12, 301,  62,  63, 304
13,  67, 302,  66,   4
14, 302, 303,  65,  66
15, 303, 304,  64,  65
16, 304,  63,   3,  64
17,   5,  70, 305,  74
18,  70,   1,  69, 305
19,  74, 305, 306,  73
20, 305,  69,  68, 306
21,  73, 306, 307,  72
22, 306,  68,  67, 307
23,  72, 307,  71,   6
24, 307,  67,   4,  71
25,   7,  75, 308,  83
26,  75,  76, 309, 308
27,  76,  77, 310, 309
28,  77,   8,  78, 310
29,  83, 308, 311,  82
30, 308, 309, 312, 311
31, 309, 310, 313, 312
32, 310,  78,  79, 313
33,  82, 311, 314,  81
34, 311, 312, 315, 314
35, 312, 313, 316, 315
36, 313,  79,  80, 316
37,  81, 314,  58,   1
38, 314, 315,  59,  58
39, 315, 316,  60,  59
40, 316,  80,   2,  60
41,   9,  84, 317,  87
42,  84,   7,  83, 317
43,  87, 317, 318,  86
44, 317,  83,  82, 318
45,  86, 318, 319,  85
46, 318,  82,  81, 319
47,  85, 319,  70,   5
48, 319,  81,   1,  70
49,   8,  77, 320,  96
50,  77,  76, 321, 320
51,  76,  75, 322, 321
52,  75,   7,  88, 322
53,  96, 320, 323,  95
54, 320, 321, 324, 323
55, 321, 322, 325, 324
56, 322,  88,  89, 325
57,  95, 323, 326,  94
58, 323, 324, 327, 326
59, 324, 325, 328, 327
60, 325,  89,  90, 328
61,  94, 326,  93,  11
62, 326, 327,  92,  93
63, 327, 328,  91,  92
64, 328,  90,  10,  91
65,  12,  97, 329, 100
66,  97,  10,  90, 329
67, 100, 329, 330,  99
68, 329,  90,  89, 330
69,  99, 330, 331,  98
70, 330,  89,  88, 331
71,  98, 331,  84,   9
72, 331,  88,   7,  84
73,  13, 101, 332, 109
74, 101, 102, 333, 332
75, 102, 103, 334, 333
76, 103,  14, 104, 334
77, 109, 332, 335, 108
78, 332, 333, 336, 335
79, 333, 334, 337, 336
80, 334, 104, 105, 337
81, 108, 335, 338, 107
82, 335, 336, 339, 338
83, 336, 337, 340, 339
84, 337, 105, 106, 340
85, 107, 338,  91,  10
86, 338, 339,  92,  91
87, 339, 340,  93,  92
88, 340, 106,  11,  93
89,  15, 110, 341, 113
90, 110,  13, 109, 341
91, 113, 341, 342, 112
92, 341, 109, 108, 342
93, 112, 342, 343, 111
94, 342, 108, 107, 343
95, 111, 343,  97,  12
96, 343, 107,  10,  97
 97,  16, 114, 344, 122
 98, 114, 115, 345, 344
 99, 115, 116, 346, 345
100, 116,  17, 117, 346
101, 122, 344, 347, 121
102, 344, 345, 348, 347
103, 345, 346, 349, 348
104, 346, 117, 118, 349
105, 121, 347, 350, 120
106, 347, 348, 351, 350
107, 348, 349, 352, 351
108, 349, 118, 119, 352
109, 120, 350, 101,  13
110, 350, 351, 102, 101
111, 351, 352, 103, 102
112, 352, 119,  14, 103
113,  18, 123, 353, 126
114, 123,  16, 122, 353
115, 126, 353, 354, 125
116, 353, 122, 121, 354
117, 125, 354, 355, 124
118, 354, 121, 120, 355
119, 124, 355, 110,  15
120, 355, 120,  13, 110
121,  19, 127, 356, 135
122, 127, 128, 357, 356
123, 128, 129, 358, 357
124, 129,  20, 130, 358
125, 135, 356, 359, 134
126, 356, 357, 360, 359
127, 357, 358, 361, 360
128, 358, 130, 131, 361
129, 134, 359, 362, 133
130, 359, 360, 363, 362
131, 360, 361, 364, 363
132, 361, 131, 132, 364
133, 133, 362, 114,  16
134, 362, 363, 115, 114
135, 363, 364, 116, 115
136, 364, 132,  17, 116
137,  21, 136, 365, 139
138, 136,  19, 135, 365
139, 139, 365, 366, 138
140, 365, 135, 134, 366
141, 138, 366, 367, 137
142, 366, 134, 133, 367
143, 137, 367, 123,  18
144, 367, 133,  16, 123
145,  22, 140, 368, 148
146, 140, 141, 369, 368
147, 141, 142, 370, 369
148, 142,  23, 143, 370
149, 148, 368, 371, 147
150, 368, 369, 372, 371
151, 369, 370, 373, 372
152, 370, 143, 144, 373
153, 147, 371, 374, 146
154, 371, 372, 375, 374
155, 372, 373, 376, 375
156, 373, 144, 145, 376
157, 146, 374, 127,  19
158, 374, 375, 128, 127
159, 375, 376, 129, 128
160, 376, 145,  20, 129
161,  24, 149, 377, 152
162, 149,  22, 148, 377
163, 152, 377, 378, 151
164, 377, 148, 147, 378
165, 151, 378, 379, 150
166, 378, 147, 146, 379
167, 150, 379, 136,  21
168, 379, 146,  19, 136
169,  25, 153, 380, 161
170, 153, 154, 381, 380
171, 154, 155, 382, 381
172, 155,  26, 156, 382
173, 161, 380, 383, 160
174, 380, 381, 384, 383
175, 381, 382, 385, 384
176, 382, 156, 157, 385
177, 160, 383, 386, 159
178, 383, 384, 387, 386
179, 384, 385, 388, 387
180, 385, 157, 158, 388
181, 159, 386, 140,  22
182, 386, 387, 141, 140
183, 387, 388, 142, 141
184, 388, 158,  23, 142
185,  27, 162, 389, 165
186, 162,  25, 161, 389
187, 165, 389, 390, 164
188, 389, 161, 160, 390
189, 164, 390, 391, 163
190, 390, 160, 159, 391
191, 163, 391, 149,  24
192, 391, 159,  22, 149
193,  28, 166, 392, 174
194, 166, 167, 393, 392
195, 167, 168, 394, 393
196, 168,  29, 169, 394
197, 174, 392, 395, 173
198, 392, 393, 396, 395
199, 393, 394, 397, 396
200, 394, 169, 170, 397
201, 173, 395, 398, 172
202, 395, 396, 399, 398
203, 396, 397, 400, 399
204, 397, 170, 171, 400
205, 172, 398, 153,  25
206, 398, 399, 154, 153
207, 399, 400, 155, 154
208, 400, 171,  26, 155
209,  30, 175, 401, 178
210, 175,  28, 174, 401
211, 178, 401, 402, 177
212, 401, 174, 173, 402
213, 177, 402, 403, 176
214, 402, 173, 172, 403
215, 176, 403, 162,  27
216, 403, 172,  25, 162
217,  31, 179, 404, 187
218, 179, 180, 405, 404
219, 180, 181, 406, 405
220, 181,  32, 182, 406
221, 187, 404, 407, 186
222, 404, 405, 408, 407
223, 405, 406, 409, 408
224, 406, 182, 183, 409
225, 186, 407, 410, 185
226, 407, 408, 411, 410
227, 408, 409, 412, 411
228, 409, 183, 184, 412
229, 185, 410, 166,  28
230, 410, 411, 167, 166
231, 411, 412, 168, 167
232, 412, 184,  29, 168
233,  33, 188, 413, 191
234, 188,  31, 187, 413
235, 191, 413, 414, 190
236, 413, 187, 186, 414
237, 190, 414, 415, 189
238, 414, 186, 185, 415
239, 189, 415, 175,  30
240, 415, 185,  28, 175
241,  34, 192, 416, 200
242, 192, 193, 417, 416
243, 193, 194, 418, 417
244, 194,  35, 195, 418
245, 200, 416, 419, 199
246, 416, 417, 420, 419
247, 417, 418, 421, 420
248, 418, 195, 196, 421
249, 199, 419, 422, 198
250, 419, 420, 423, 422
251, 420, 421, 424, 423
252, 421, 196, 197, 424
253, 198, 422, 179,  31
254, 422, 423, 180, 179
255, 423, 424, 181, 180
256, 424, 197,  32, 181
257,  36, 201, 425, 204
258, 201,  34, 200, 425
259, 204, 425, 426, 203
260, 425, 200, 199, 426
261, 203, 426, 427, 202
262, 426, 199, 198, 427
263, 202, 427, 188,  33
264, 427, 198,  31, 188
265,  37, 205, 428, 213
266, 205, 206, 429, 428
267, 206, 207, 430, 429
268, 207,  38, 208, 430
269, 213, 428, 431, 212
270, 428, 429, 432, 431
271, 429, 430, 433, 432
272, 430, 208, 209, 433
273, 212, 431, 434, 211
274, 431, 432, 435, 434
275, 432, 433, 436, 435
276, 433, 209, 210, 436
277, 211, 434, 192,  34
278, 434, 435, 193, 192
279, 435, 436, 194, 193
280, 436, 210,  35, 194
281,  39, 214, 437, 217
282, 214,  37, 213, 437
283, 217, 437, 438, 216
284, 437, 213, 212, 438
285, 216, 438, 439, 215
286, 438, 212, 211, 439
287, 215, 439, 201,  36
288, 439, 211,  34, 201
289,  40, 218, 440, 226
290, 218, 219, 441, 440
291, 219, 220, 442, 441
292, 220,  41, 221, 442
293, 226, 440, 443, 225
294, 440, 441, 444, 443
295, 441, 442, 445, 444
296, 442, 221, 222, 445
297, 225, 443, 446, 224
298, 443, 444, 447, 446
299, 444, 445, 448, 447
300, 445, 222, 223, 448
301, 224, 446, 205,  37
302, 446, 447, 206, 205
303, 447, 448, 207, 206
304, 448, 223,  38, 207
305,  42, 227, 449, 230
306, 227,  40, 226, 449
307, 230, 449, 450, 229
308, 449, 226, 225, 450
309, 229, 450, 451, 228
310, 450, 225, 224, 451
311, 228, 451, 214,  39
312, 451, 224,  37, 214
313,  43, 231, 452, 239
314, 231, 232, 453, 452
315, 232, 233, 454, 453
316, 233,  44, 234, 454
317, 239, 452, 455, 238
318, 452, 453, 456, 455
319, 453, 454, 457, 456
320, 454, 234, 235, 457
321, 238, 455, 458, 237
322, 455, 456, 459, 458
323, 456, 457, 460, 459
324, 457, 235, 236, 460
325, 237, 458, 218,  40
326, 458, 459, 219, 218
327, 459, 460, 220, 219
328, 460, 236,  41, 220
329,  45, 240, 461, 243
330, 240,  43, 239, 461
331, 243, 461, 462, 242
332, 461, 239, 238, 462
333, 242, 462, 463, 241
334, 462, 238, 237, 463
335, 241, 463, 227,  42
336, 463, 237,  40, 227
337,  46, 244, 464, 252
338, 244, 245, 465, 464
339, 245, 246, 466, 465
340, 246,  47, 247, 466
341, 252, 464, 467, 251
342, 464, 465, 468, 467
343, 465, 466, 469, 468
344, 466, 247, 248, 469
345, 251, 467, 470, 250
346, 467, 468, 471, 470
347, 468, 469, 472, 471
348, 469, 248, 249, 472
349, 250, 470, 231,  43
350, 470, 471, 232, 231
351, 471, 472, 233, 232
352, 472, 249,  44, 233
353,  48, 253, 473, 256
354, 253,  46, 252, 473
355, 256, 473, 474, 255
356, 473, 252, 251, 474
357, 255, 474, 475, 254
358, 474, 251, 250, 475
359, 254, 475, 240,  45
360, 475, 250,  43, 240
361,  49, 257, 476, 265
362, 257, 258, 477, 476
363, 258, 259, 478, 477
364, 259,  50, 260, 478
365, 265, 476, 479, 264
366, 476, 477, 480, 479
367, 477, 478, 481, 480
368, 478, 260, 261, 481
369, 264, 479, 482, 263
370, 479, 480, 483, 482
371, 480, 481, 484, 483
372, 481, 261, 262, 484
373, 263, 482, 244,  46
374, 482, 483, 245, 244
375, 483, 484, 246, 245
376, 484, 262,  47, 246
377,  51, 266, 485, 269
378, 266,  49, 265, 485
379, 269, 485, 486, 268
380, 485, 265, 264, 486
381, 268, 486, 487, 267
382, 486, 264, 263, 487
383, 267, 487, 253,  48
384, 487, 263,  46, 253
385,  52, 270, 488, 278
386, 270, 271, 489, 488
387, 271, 272, 490, 489
388, 272,  53, 273, 490
389, 278, 488, 491, 277
390, 488, 489, 492, 491
391, 489, 490, 493, 492
392, 490, 273, 274, 493
393, 277, 491, 494, 276
394, 491, 492, 495, 494
395, 492, 493, 496, 495
396, 493, 274, 275, 496
397, 276, 494, 257,  49
398, 494, 495, 258, 257
399, 495, 496, 259, 258
400, 496, 275,  50, 259
401,  52, 279, 497, 270
402, 279, 280, 498, 497
403, 280, 281, 499, 498
404, 281,  54, 282, 499
405, 270, 497, 500, 271
406, 497, 498, 501, 500
407, 498, 499, 502, 501
408, 499, 282, 283, 502
409, 271, 500, 503, 272
410, 500, 501, 504, 503
411, 501, 502, 505, 504
412, 502, 283, 284, 505
413, 272, 503, 287,  53
414, 503, 504, 286, 287
415, 504, 505, 285, 286
416, 505, 284,  55, 285
417,  56, 288, 506, 291
418, 288,  52, 278, 506
419, 291, 506, 507, 290
420, 506, 278, 277, 507
421, 290, 507, 508, 289
422, 507, 277, 276, 508
423, 289, 508, 266,  51
424, 508, 276,  49, 266
425,  52, 288, 509, 279
426, 288,  56, 292, 509
427, 279, 509, 510, 280
428, 509, 292, 293, 510
429, 280, 510, 511, 281
430, 510, 293, 294, 511
431, 281, 511, 295,  54
432, 511, 294,  57, 295
*Nset, nset=section_all, generate
   1,  511,    1
*Elset, elset=section_all, generate
   1,  432,    1
*Nset, nset=set_body_heat_00
  49,  51,  52,  56, 266, 276, 277, 278, 288, 289, 290, 291, 506, 507, 508
*Elset, elset=set_body_heat_00, generate
 417,  424,    1
*Nset, nset=set_body_heat_01
  46,  48,  49,  51, 253, 263, 264, 265, 266, 267, 268, 269, 485, 486, 487
*Elset, elset=set_body_heat_01, generate
 377,  384,    1
*Nset, nset=set_body_heat_02
  43,  45,  46,  48, 240, 250, 251, 252, 253, 254, 255, 256, 473, 474, 475
*Elset, elset=set_body_heat_02, generate
 353,  360,    1
*Nset, nset=set_body_heat_03
  40,  42,  43,  45, 227, 237, 238, 239, 240, 241, 242, 243, 461, 462, 463
*Elset, elset=set_body_heat_03, generate
 329,  336,    1
*Nset, nset=set_body_heat_04
  37,  39,  40,  42, 214, 224, 225, 226, 227, 228, 229, 230, 449, 450, 451
*Elset, elset=set_body_heat_04, generate
 305,  312,    1
*Nset, nset=set_body_heat_05
  34,  36,  37,  39, 201, 211, 212, 213, 214, 215, 216, 217, 437, 438, 439
*Elset, elset=set_body_heat_05, generate
 281,  288,    1
*Nset, nset=set_body_heat_06
  31,  33,  34,  36, 188, 198, 199, 200, 201, 202, 203, 204, 425, 426, 427
*Elset, elset=set_body_heat_06, generate
 257,  264,    1
*Nset, nset=set_body_heat_07
  28,  30,  31,  33, 175, 185, 186, 187, 188, 189, 190, 191, 413, 414, 415
*Elset, elset=set_body_heat_07, generate
 233,  240,    1
*Nset, nset=set_body_heat_08
  25,  27,  28,  30, 162, 172, 173, 174, 175, 176, 177, 178, 401, 402, 403
*Elset, elset=set_body_heat_08, generate
 209,  216,    1
*Nset, nset=set_body_heat_09
  22,  24,  25,  27, 149, 159, 160, 161, 162, 163, 164, 165, 389, 390, 391
*Elset, elset=set_body_heat_09, generate
 185,  192,    1
*Nset, nset=set_body_heat_10
  19,  21,  22,  24, 136, 146, 147, 148, 149, 150, 151, 152, 377, 378, 379
*Elset, elset=set_body_heat_10, generate
 161,  168,    1
*Nset, nset=set_body_heat_11
  16,  18,  19,  21, 123, 133, 134, 135, 136, 137, 138, 139, 365, 366, 367
*Elset, elset=set_body_heat_11, generate
 137,  144,    1
*Nset, nset=set_body_heat_12
  13,  15,  16,  18, 110, 120, 121, 122, 123, 124, 125, 126, 353, 354, 355
*Elset, elset=set_body_heat_12, generate
 113,  120,    1
*Nset, nset=set_body_heat_13
  10,  12,  13,  15,  97, 107, 108, 109, 110, 111, 112, 113, 341, 342, 343
*Elset, elset=set_body_heat_13, generate
 89,  96,   1
*Nset, nset=set_body_heat_14
   7,   9,  10,  12,  84,  88,  89,  90,  97,  98,  99, 100, 329, 330, 331
*Elset, elset=set_body_heat_14, generate
 65,  72,   1
*Nset, nset=set_body_heat_15
   1,   5,   7,   9,  70,  81,  82,  83,  84,  85,  86,  87, 317, 318, 319
*Elset, elset=set_body_heat_15, generate
 41,  48,   1
*Elset, elset=_surf_external_all_S2, internal
   4,   8,  12,  16,  28,  32,  36,  40,  76,  80,  84,  88, 100, 104, 108, 112
 124, 128, 132, 136, 148, 152, 156, 160, 172, 176, 180, 184, 196, 200, 204, 208
 220, 224, 228, 232, 244, 248, 252, 256, 268, 272, 276, 280, 292, 296, 300, 304
 316, 320, 324, 328, 340, 344, 348, 352, 364, 368, 372, 376, 388, 392, 396, 400
 404, 408, 412, 416, 426, 428, 430, 432
*Elset, elset=_surf_external_all_S3, internal
  13,  14,  15,  16,  23,  24, 413, 414, 415, 416, 431, 432
*Elset, elset=_surf_external_all_S4, internal
  17,  19,  21,  23,  41,  43,  45,  47,  49,  53,  57,  61,  65,  67,  69,  71
  89,  91,  93,  95, 113, 115, 117, 119, 137, 139, 141, 143, 161, 163, 165, 167
 185, 187, 189, 191, 209, 211, 213, 215, 233, 235, 237, 239, 257, 259, 261, 263
 281, 283, 285, 287, 305, 307, 309, 311, 329, 331, 333, 335, 353, 355, 357, 359
 377, 379, 381, 383, 417, 419, 421, 423
*Surface, type=ELEMENT, name=surf_external_all
_surf_external_all_S2, S2
_surf_external_all_S3, S3
_surf_external_all_S4, S4
** Section: property_section_all
*Solid Section, elset=section_all, material="SS316L For AM"
,
*End Part
**  
**
** ASSEMBLY
**
*Assembly, name=Assembly
**  
*Instance, name=inst_plate, part=part_plate
*End Instance
**  
*Nset, nset=_PickedSet4, internal, instance=inst_plate
 55,
*Nset, nset=_PickedSet5, internal, instance=inst_plate
 3,
*End Assembly
** 
** MATERIALS
** 
** Material property of AISI Type 316L Steel in Additive Manufacturing
** 
*Material, name="SS316L For AM"
*Conductivity
  14.,  20.
  16., 100.
  17., 200.
  19., 400.
 21.5, 600.
  24., 800.
 26.5,1000.
  29.,1200.
  31.,1375.
  29.,1400.
  29.,1723.
  29.,3000.
*Density
7980.,  20.
7950., 100.
7920., 200.
7860., 400.
7800., 600.
7740., 800.
7680.,1000.
7620.,1200.
7580.,1375.
7450.,1400.
7300.,1723.
7200.,3000.
*Elastic
 2.08e+11,  0.3,  20.
 2.02e+11,  0.3, 100.
 1.94e+11,  0.3, 200.
 1.78e+11,  0.3, 400.
 1.62e+11,  0.3, 600.
 1.42e+11,  0.3, 800.
 1.12e+11,  0.3,1000.
  7.5e+10,  0.3,1200.
  1.5e+10,  0.3,1375.
    1e+08,  0.3,1400.
    1e+07,  0.3,1723.
    1e+06,  0.3,3000.
*Expansion
 1.48e-05,  20.
  1.6e-05, 100.
 1.68e-05, 200.
 1.78e-05, 400.
 1.87e-05, 600.
 1.96e-05, 800.
 2.02e-05,1000.
 2.08e-05,1200.
 2.15e-05,1375.
  2.2e-05,1400.
  2.2e-05,1723.
  2.2e-05,3000.
*Latent Heat
256000.,1375.,1400.
*Plastic
 5.8e+08,   0.,  20.
 5.3e+08,   0., 100.
 4.8e+08,   0., 200.
 4.1e+08,   0., 400.
 3.5e+08,   0., 600.
 2.1e+08,   0., 800.
   9e+07,   0.,1000.
   3e+07,   0.,1200.
   2e+06,   0.,1375.
  10000.,   0.,1400.
   5000.,   0.,1723.
   1000.,   0.,3000.
*Specific Heat
450.,  20.
480., 100.
505., 200.
540., 400.
570., 600.
600., 800.
635.,1000.
670.,1200.
700.,1375.
750.,1400.
760.,1723.
800.,3000.
** 
** PHYSICAL CONSTANTS
** 
*Physical Constants, absolute zero=-273.15, stefan boltzmann=5.67e-08
** 
** BOUNDARY CONDITIONS
** 
** Name: bc_point_xy Type: Displacement/Rotation
*Boundary
_PickedSet4, 1, 1
_PickedSet4, 2, 2
** Name: bc_point_y Type: Displacement/Rotation
*Boundary
_PickedSet5, 2, 2
** 
** PREDEFINED FIELDS
** 
** Name: predefined_temperature_all   Type: Temperature
*Initial Conditions, type=TEMPERATURE
inst_plate.section_all, 20.
** ----------------------------------------------------------------
** 
** STEP: step_scan_00
** 
*Step, name=step_scan_00, nlgeom=YES, inc=999999
*Coupled Temperature-displacement, creep=none, deltmx=400.
0.001, 0.2, 2e-30, 0.01
** 
** LOADS
** 
** Name: load_body_hflux_00   Type: Body heat flux
*Dflux
inst_plate.set_body_heat_08, BF, 8e+10
** 
** INTERACTIONS
** 
** Interaction: film_external_cooling
*Sfilm
inst_plate.surf_external_all, F, 20., 46.3
** Interaction: rad_external_ambient
*Sradiate
inst_plate.surf_external_all, R, 20., 0.285
** 
** OUTPUT REQUESTS
** 
*Restart, write, frequency=0
** 
** FIELD OUTPUT: F-Output-1
** 
*Output, field
*Node Output
NT, RF, U
*Element Output, directions=YES
HFL, PEEQ, S
** 
** HISTORY OUTPUT: H-Output-1
** 
*Output, history
*Energy Output
ALLAE, ALLIE, ALLKE, ALLPD, ALLSD, ALLSE, ALLWK, ETOTAL
*End Step
** ----------------------------------------------------------------
** 
** STEP: step_cool_00
** 
*Step, name=step_cool_00, nlgeom=YES, inc=999999
*Coupled Temperature-displacement, creep=none, deltmx=400.
0.01, 3.4, 3.4e-30, 0.2
** 
** LOADS
** 
** Name: load_body_hflux_00   Type: Body heat flux
*Dflux, op=NEW
** 
** OUTPUT REQUESTS
** 
*Restart, write, frequency=0
** 
** FIELD OUTPUT: F-Output-1
** 
*Output, field
*Node Output
NT, RF, U
*Element Output, directions=YES
HFL, PEEQ, S
** 
** HISTORY OUTPUT: H-Output-1
** 
*Output, history
*Energy Output
ALLAE, ALLIE, ALLKE, ALLPD, ALLSD, ALLSE, ALLWK, ETOTAL
*End Step
** ----------------------------------------------------------------
** 
** STEP: step_scan_01
** 
*Step, name=step_scan_01, nlgeom=YES, inc=999999
*Coupled Temperature-displacement, creep=none, deltmx=400.
0.001, 0.2, 2e-30, 0.01
** 
** LOADS
** 
** Name: load_body_hflux_01   Type: Body heat flux
*Dflux
inst_plate.set_body_heat_06, BF, 8e+10
** 
** OUTPUT REQUESTS
** 
*Restart, write, frequency=0
** 
** FIELD OUTPUT: F-Output-1
** 
*Output, field
*Node Output
NT, RF, U
*Element Output, directions=YES
HFL, PEEQ, S
** 
** HISTORY OUTPUT: H-Output-1
** 
*Output, history
*Energy Output
ALLAE, ALLIE, ALLKE, ALLPD, ALLSD, ALLSE, ALLWK, ETOTAL
*End Step
** ----------------------------------------------------------------
** 
** STEP: step_cool_01
** 
*Step, name=step_cool_01, nlgeom=YES, inc=999999
*Coupled Temperature-displacement, creep=none, deltmx=400.
0.01, 3.4, 3.4e-30, 0.2
** 
** LOADS
** 
** Name: load_body_hflux_01   Type: Body heat flux
*Dflux, op=NEW
** 
** OUTPUT REQUESTS
** 
*Restart, write, frequency=0
** 
** FIELD OUTPUT: F-Output-1
** 
*Output, field
*Node Output
NT, RF, U
*Element Output, directions=YES
HFL, PEEQ, S
** 
** HISTORY OUTPUT: H-Output-1
** 
*Output, history
*Energy Output
ALLAE, ALLIE, ALLKE, ALLPD, ALLSD, ALLSE, ALLWK, ETOTAL
*End Step
** ----------------------------------------------------------------
** 
** STEP: step_scan_02
** 
*Step, name=step_scan_02, nlgeom=YES, inc=999999
*Coupled Temperature-displacement, creep=none, deltmx=400.
0.001, 0.2, 2e-30, 0.01
** 
** LOADS
** 
** Name: load_body_hflux_02   Type: Body heat flux
*Dflux
inst_plate.set_body_heat_04, BF, 8e+10
** 
** OUTPUT REQUESTS
** 
*Restart, write, frequency=0
** 
** FIELD OUTPUT: F-Output-1
** 
*Output, field
*Node Output
NT, RF, U
*Element Output, directions=YES
HFL, PEEQ, S
** 
** HISTORY OUTPUT: H-Output-1
** 
*Output, history
*Energy Output
ALLAE, ALLIE, ALLKE, ALLPD, ALLSD, ALLSE, ALLWK, ETOTAL
*End Step
** ----------------------------------------------------------------
** 
** STEP: step_cool_02
** 
*Step, name=step_cool_02, nlgeom=YES, inc=999999
*Coupled Temperature-displacement, creep=none, deltmx=400.
0.01, 3.4, 3.4e-30, 0.2
** 
** LOADS
** 
** Name: load_body_hflux_02   Type: Body heat flux
*Dflux, op=NEW
** 
** OUTPUT REQUESTS
** 
*Restart, write, frequency=0
** 
** FIELD OUTPUT: F-Output-1
** 
*Output, field
*Node Output
NT, RF, U
*Element Output, directions=YES
HFL, PEEQ, S
** 
** HISTORY OUTPUT: H-Output-1
** 
*Output, history
*Energy Output
ALLAE, ALLIE, ALLKE, ALLPD, ALLSD, ALLSE, ALLWK, ETOTAL
*End Step
** ----------------------------------------------------------------
** 
** STEP: step_scan_03
** 
*Step, name=step_scan_03, nlgeom=YES, inc=999999
*Coupled Temperature-displacement, creep=none, deltmx=400.
0.001, 0.2, 2e-30, 0.01
** 
** LOADS
** 
** Name: load_body_hflux_03   Type: Body heat flux
*Dflux
inst_plate.set_body_heat_14, BF, 8e+10
** 
** OUTPUT REQUESTS
** 
*Restart, write, frequency=0
** 
** FIELD OUTPUT: F-Output-1
** 
*Output, field
*Node Output
NT, RF, U
*Element Output, directions=YES
HFL, PEEQ, S
** 
** HISTORY OUTPUT: H-Output-1
** 
*Output, history
*Energy Output
ALLAE, ALLIE, ALLKE, ALLPD, ALLSD, ALLSE, ALLWK, ETOTAL
*End Step
** ----------------------------------------------------------------
** 
** STEP: step_cool_03
** 
*Step, name=step_cool_03, nlgeom=YES, inc=999999
*Coupled Temperature-displacement, creep=none, deltmx=400.
0.01, 3.4, 3.4e-30, 0.2
** 
** LOADS
** 
** Name: load_body_hflux_03   Type: Body heat flux
*Dflux, op=NEW
** 
** OUTPUT REQUESTS
** 
*Restart, write, frequency=0
** 
** FIELD OUTPUT: F-Output-1
** 
*Output, field
*Node Output
NT, RF, U
*Element Output, directions=YES
HFL, PEEQ, S
** 
** HISTORY OUTPUT: H-Output-1
** 
*Output, history
*Energy Output
ALLAE, ALLIE, ALLKE, ALLPD, ALLSD, ALLSE, ALLWK, ETOTAL
*End Step
** ----------------------------------------------------------------
** 
** STEP: step_scan_04
** 
*Step, name=step_scan_04, nlgeom=YES, inc=999999
*Coupled Temperature-displacement, creep=none, deltmx=400.
0.001, 0.2, 2e-30, 0.01
** 
** LOADS
** 
** Name: load_body_hflux_04   Type: Body heat flux
*Dflux
inst_plate.set_body_heat_12, BF, 8e+10
** 
** OUTPUT REQUESTS
** 
*Restart, write, frequency=0
** 
** FIELD OUTPUT: F-Output-1
** 
*Output, field
*Node Output
NT, RF, U
*Element Output, directions=YES
HFL, PEEQ, S
** 
** HISTORY OUTPUT: H-Output-1
** 
*Output, history
*Energy Output
ALLAE, ALLIE, ALLKE, ALLPD, ALLSD, ALLSE, ALLWK, ETOTAL
*End Step
** ----------------------------------------------------------------
** 
** STEP: step_cool_04
** 
*Step, name=step_cool_04, nlgeom=YES, inc=999999
*Coupled Temperature-displacement, creep=none, deltmx=400.
0.01, 3.4, 3.4e-30, 0.2
** 
** LOADS
** 
** Name: load_body_hflux_04   Type: Body heat flux
*Dflux, op=NEW
** 
** OUTPUT REQUESTS
** 
*Restart, write, frequency=0
** 
** FIELD OUTPUT: F-Output-1
** 
*Output, field
*Node Output
NT, RF, U
*Element Output, directions=YES
HFL, PEEQ, S
** 
** HISTORY OUTPUT: H-Output-1
** 
*Output, history
*Energy Output
ALLAE, ALLIE, ALLKE, ALLPD, ALLSD, ALLSE, ALLWK, ETOTAL
*End Step
** ----------------------------------------------------------------
** 
** STEP: step_scan_05
** 
*Step, name=step_scan_05, nlgeom=YES, inc=999999
*Coupled Temperature-displacement, creep=none, deltmx=400.
0.001, 0.2, 2e-30, 0.01
** 
** LOADS
** 
** Name: load_body_hflux_05   Type: Body heat flux
*Dflux
inst_plate.set_body_heat_10, BF, 8e+10
** 
** OUTPUT REQUESTS
** 
*Restart, write, frequency=0
** 
** FIELD OUTPUT: F-Output-1
** 
*Output, field
*Node Output
NT, RF, U
*Element Output, directions=YES
HFL, PEEQ, S
** 
** HISTORY OUTPUT: H-Output-1
** 
*Output, history
*Energy Output
ALLAE, ALLIE, ALLKE, ALLPD, ALLSD, ALLSE, ALLWK, ETOTAL
*End Step
** ----------------------------------------------------------------
** 
** STEP: step_cool_05
** 
*Step, name=step_cool_05, nlgeom=YES, inc=999999
*Coupled Temperature-displacement, creep=none, deltmx=400.
0.01, 3.4, 3.4e-30, 0.2
** 
** LOADS
** 
** Name: load_body_hflux_05   Type: Body heat flux
*Dflux, op=NEW
** 
** OUTPUT REQUESTS
** 
*Restart, write, frequency=0
** 
** FIELD OUTPUT: F-Output-1
** 
*Output, field
*Node Output
NT, RF, U
*Element Output, directions=YES
HFL, PEEQ, S
** 
** HISTORY OUTPUT: H-Output-1
** 
*Output, history
*Energy Output
ALLAE, ALLIE, ALLKE, ALLPD, ALLSD, ALLSE, ALLWK, ETOTAL
*End Step
** ----------------------------------------------------------------
** 
** STEP: step_scan_06
** 
*Step, name=step_scan_06, nlgeom=YES, inc=999999
*Coupled Temperature-displacement, creep=none, deltmx=400.
0.001, 0.2, 2e-30, 0.01
** 
** LOADS
** 
** Name: load_body_hflux_06   Type: Body heat flux
*Dflux
inst_plate.set_body_heat_02, BF, 8e+10
** 
** OUTPUT REQUESTS
** 
*Restart, write, frequency=0
** 
** FIELD OUTPUT: F-Output-1
** 
*Output, field
*Node Output
NT, RF, U
*Element Output, directions=YES
HFL, PEEQ, S
** 
** HISTORY OUTPUT: H-Output-1
** 
*Output, history
*Energy Output
ALLAE, ALLIE, ALLKE, ALLPD, ALLSD, ALLSE, ALLWK, ETOTAL
*End Step
** ----------------------------------------------------------------
** 
** STEP: step_cool_06
** 
*Step, name=step_cool_06, nlgeom=YES, inc=999999
*Coupled Temperature-displacement, creep=none, deltmx=400.
0.01, 3.4, 3.4e-30, 0.2
** 
** LOADS
** 
** Name: load_body_hflux_06   Type: Body heat flux
*Dflux, op=NEW
** 
** OUTPUT REQUESTS
** 
*Restart, write, frequency=0
** 
** FIELD OUTPUT: F-Output-1
** 
*Output, field
*Node Output
NT, RF, U
*Element Output, directions=YES
HFL, PEEQ, S
** 
** HISTORY OUTPUT: H-Output-1
** 
*Output, history
*Energy Output
ALLAE, ALLIE, ALLKE, ALLPD, ALLSD, ALLSE, ALLWK, ETOTAL
*End Step
** ----------------------------------------------------------------
** 
** STEP: step_scan_07
** 
*Step, name=step_scan_07, nlgeom=YES, inc=999999
*Coupled Temperature-displacement, creep=none, deltmx=400.
0.001, 0.2, 2e-30, 0.01
** 
** LOADS
** 
** Name: load_body_hflux_07   Type: Body heat flux
*Dflux
inst_plate.set_body_heat_00, BF, 8e+10
** 
** OUTPUT REQUESTS
** 
*Restart, write, frequency=0
** 
** FIELD OUTPUT: F-Output-1
** 
*Output, field
*Node Output
NT, RF, U
*Element Output, directions=YES
HFL, PEEQ, S
** 
** HISTORY OUTPUT: H-Output-1
** 
*Output, history
*Energy Output
ALLAE, ALLIE, ALLKE, ALLPD, ALLSD, ALLSE, ALLWK, ETOTAL
*End Step
** ----------------------------------------------------------------
** 
** STEP: step_cool_07
** 
*Step, name=step_cool_07, nlgeom=YES, inc=999999
*Coupled Temperature-displacement, creep=none, deltmx=400.
0.01, 3.4, 3.4e-30, 0.2
** 
** LOADS
** 
** Name: load_body_hflux_07   Type: Body heat flux
*Dflux, op=NEW
** 
** OUTPUT REQUESTS
** 
*Restart, write, frequency=0
** 
** FIELD OUTPUT: F-Output-1
** 
*Output, field
*Node Output
NT, RF, U
*Element Output, directions=YES
HFL, PEEQ, S
** 
** HISTORY OUTPUT: H-Output-1
** 
*Output, history
*Energy Output
ALLAE, ALLIE, ALLKE, ALLPD, ALLSD, ALLSE, ALLWK, ETOTAL
*End Step
** ----------------------------------------------------------------
** 
** STEP: step_scan_08
** 
*Step, name=step_scan_08, nlgeom=YES, inc=999999
*Coupled Temperature-displacement, creep=none, deltmx=400.
0.001, 0.2, 2e-30, 0.01
** 
** LOADS
** 
** Name: load_body_hflux_08   Type: Body heat flux
*Dflux
inst_plate.set_body_heat_01, BF, 8e+10
** 
** OUTPUT REQUESTS
** 
*Restart, write, frequency=0
** 
** FIELD OUTPUT: F-Output-1
** 
*Output, field
*Node Output
NT, RF, U
*Element Output, directions=YES
HFL, PEEQ, S
** 
** HISTORY OUTPUT: H-Output-1
** 
*Output, history
*Energy Output
ALLAE, ALLIE, ALLKE, ALLPD, ALLSD, ALLSE, ALLWK, ETOTAL
*End Step
** ----------------------------------------------------------------
** 
** STEP: step_cool_08
** 
*Step, name=step_cool_08, nlgeom=YES, inc=999999
*Coupled Temperature-displacement, creep=none, deltmx=400.
0.01, 3.4, 3.4e-30, 0.2
** 
** LOADS
** 
** Name: load_body_hflux_08   Type: Body heat flux
*Dflux, op=NEW
** 
** OUTPUT REQUESTS
** 
*Restart, write, frequency=0
** 
** FIELD OUTPUT: F-Output-1
** 
*Output, field
*Node Output
NT, RF, U
*Element Output, directions=YES
HFL, PEEQ, S
** 
** HISTORY OUTPUT: H-Output-1
** 
*Output, history
*Energy Output
ALLAE, ALLIE, ALLKE, ALLPD, ALLSD, ALLSE, ALLWK, ETOTAL
*End Step
** ----------------------------------------------------------------
** 
** STEP: step_scan_09
** 
*Step, name=step_scan_09, nlgeom=YES, inc=999999
*Coupled Temperature-displacement, creep=none, deltmx=400.
0.001, 0.2, 2e-30, 0.01
** 
** LOADS
** 
** Name: load_body_hflux_09   Type: Body heat flux
*Dflux
inst_plate.set_body_heat_03, BF, 8e+10
** 
** OUTPUT REQUESTS
** 
*Restart, write, frequency=0
** 
** FIELD OUTPUT: F-Output-1
** 
*Output, field
*Node Output
NT, RF, U
*Element Output, directions=YES
HFL, PEEQ, S
** 
** HISTORY OUTPUT: H-Output-1
** 
*Output, history
*Energy Output
ALLAE, ALLIE, ALLKE, ALLPD, ALLSD, ALLSE, ALLWK, ETOTAL
*End Step
** ----------------------------------------------------------------
** 
** STEP: step_cool_09
** 
*Step, name=step_cool_09, nlgeom=YES, inc=999999
*Coupled Temperature-displacement, creep=none, deltmx=400.
0.01, 3.4, 3.4e-30, 0.2
** 
** LOADS
** 
** Name: load_body_hflux_09   Type: Body heat flux
*Dflux, op=NEW
** 
** OUTPUT REQUESTS
** 
*Restart, write, frequency=0
** 
** FIELD OUTPUT: F-Output-1
** 
*Output, field
*Node Output
NT, RF, U
*Element Output, directions=YES
HFL, PEEQ, S
** 
** HISTORY OUTPUT: H-Output-1
** 
*Output, history
*Energy Output
ALLAE, ALLIE, ALLKE, ALLPD, ALLSD, ALLSE, ALLWK, ETOTAL
*End Step
** ----------------------------------------------------------------
** 
** STEP: step_scan_10
** 
*Step, name=step_scan_10, nlgeom=YES, inc=999999
*Coupled Temperature-displacement, creep=none, deltmx=400.
0.001, 0.2, 2e-30, 0.01
** 
** LOADS
** 
** Name: load_body_hflux_10   Type: Body heat flux
*Dflux
inst_plate.set_body_heat_07, BF, 8e+10
** 
** OUTPUT REQUESTS
** 
*Restart, write, frequency=0
** 
** FIELD OUTPUT: F-Output-1
** 
*Output, field
*Node Output
NT, RF, U
*Element Output, directions=YES
HFL, PEEQ, S
** 
** HISTORY OUTPUT: H-Output-1
** 
*Output, history
*Energy Output
ALLAE, ALLIE, ALLKE, ALLPD, ALLSD, ALLSE, ALLWK, ETOTAL
*End Step
** ----------------------------------------------------------------
** 
** STEP: step_cool_10
** 
*Step, name=step_cool_10, nlgeom=YES, inc=999999
*Coupled Temperature-displacement, creep=none, deltmx=400.
0.01, 3.4, 3.4e-30, 0.2
** 
** LOADS
** 
** Name: load_body_hflux_10   Type: Body heat flux
*Dflux, op=NEW
** 
** OUTPUT REQUESTS
** 
*Restart, write, frequency=0
** 
** FIELD OUTPUT: F-Output-1
** 
*Output, field
*Node Output
NT, RF, U
*Element Output, directions=YES
HFL, PEEQ, S
** 
** HISTORY OUTPUT: H-Output-1
** 
*Output, history
*Energy Output
ALLAE, ALLIE, ALLKE, ALLPD, ALLSD, ALLSE, ALLWK, ETOTAL
*End Step
** ----------------------------------------------------------------
** 
** STEP: step_scan_11
** 
*Step, name=step_scan_11, nlgeom=YES, inc=999999
*Coupled Temperature-displacement, creep=none, deltmx=400.
0.001, 0.2, 2e-30, 0.01
** 
** LOADS
** 
** Name: load_body_hflux_11   Type: Body heat flux
*Dflux
inst_plate.set_body_heat_05, BF, 8e+10
** 
** OUTPUT REQUESTS
** 
*Restart, write, frequency=0
** 
** FIELD OUTPUT: F-Output-1
** 
*Output, field
*Node Output
NT, RF, U
*Element Output, directions=YES
HFL, PEEQ, S
** 
** HISTORY OUTPUT: H-Output-1
** 
*Output, history
*Energy Output
ALLAE, ALLIE, ALLKE, ALLPD, ALLSD, ALLSE, ALLWK, ETOTAL
*End Step
** ----------------------------------------------------------------
** 
** STEP: step_cool_11
** 
*Step, name=step_cool_11, nlgeom=YES, inc=999999
*Coupled Temperature-displacement, creep=none, deltmx=400.
0.01, 3.4, 3.4e-30, 0.2
** 
** LOADS
** 
** Name: load_body_hflux_11   Type: Body heat flux
*Dflux, op=NEW
** 
** OUTPUT REQUESTS
** 
*Restart, write, frequency=0
** 
** FIELD OUTPUT: F-Output-1
** 
*Output, field
*Node Output
NT, RF, U
*Element Output, directions=YES
HFL, PEEQ, S
** 
** HISTORY OUTPUT: H-Output-1
** 
*Output, history
*Energy Output
ALLAE, ALLIE, ALLKE, ALLPD, ALLSD, ALLSE, ALLWK, ETOTAL
*End Step
** ----------------------------------------------------------------
** 
** STEP: step_scan_12
** 
*Step, name=step_scan_12, nlgeom=YES, inc=999999
*Coupled Temperature-displacement, creep=none, deltmx=400.
0.001, 0.2, 2e-30, 0.01
** 
** LOADS
** 
** Name: load_body_hflux_12   Type: Body heat flux
*Dflux
inst_plate.set_body_heat_09, BF, 8e+10
** 
** OUTPUT REQUESTS
** 
*Restart, write, frequency=0
** 
** FIELD OUTPUT: F-Output-1
** 
*Output, field
*Node Output
NT, RF, U
*Element Output, directions=YES
HFL, PEEQ, S
** 
** HISTORY OUTPUT: H-Output-1
** 
*Output, history
*Energy Output
ALLAE, ALLIE, ALLKE, ALLPD, ALLSD, ALLSE, ALLWK, ETOTAL
*End Step
** ----------------------------------------------------------------
** 
** STEP: step_cool_12
** 
*Step, name=step_cool_12, nlgeom=YES, inc=999999
*Coupled Temperature-displacement, creep=none, deltmx=400.
0.01, 3.4, 3.4e-30, 0.2
** 
** LOADS
** 
** Name: load_body_hflux_12   Type: Body heat flux
*Dflux, op=NEW
** 
** OUTPUT REQUESTS
** 
*Restart, write, frequency=0
** 
** FIELD OUTPUT: F-Output-1
** 
*Output, field
*Node Output
NT, RF, U
*Element Output, directions=YES
HFL, PEEQ, S
** 
** HISTORY OUTPUT: H-Output-1
** 
*Output, history
*Energy Output
ALLAE, ALLIE, ALLKE, ALLPD, ALLSD, ALLSE, ALLWK, ETOTAL
*End Step
** ----------------------------------------------------------------
** 
** STEP: step_scan_13
** 
*Step, name=step_scan_13, nlgeom=YES, inc=999999
*Coupled Temperature-displacement, creep=none, deltmx=400.
0.001, 0.2, 2e-30, 0.01
** 
** LOADS
** 
** Name: load_body_hflux_13   Type: Body heat flux
*Dflux
inst_plate.set_body_heat_11, BF, 8e+10
** 
** OUTPUT REQUESTS
** 
*Restart, write, frequency=0
** 
** FIELD OUTPUT: F-Output-1
** 
*Output, field
*Node Output
NT, RF, U
*Element Output, directions=YES
HFL, PEEQ, S
** 
** HISTORY OUTPUT: H-Output-1
** 
*Output, history
*Energy Output
ALLAE, ALLIE, ALLKE, ALLPD, ALLSD, ALLSE, ALLWK, ETOTAL
*End Step
** ----------------------------------------------------------------
** 
** STEP: step_cool_13
** 
*Step, name=step_cool_13, nlgeom=YES, inc=999999
*Coupled Temperature-displacement, creep=none, deltmx=400.
0.01, 3.4, 3.4e-30, 0.2
** 
** LOADS
** 
** Name: load_body_hflux_13   Type: Body heat flux
*Dflux, op=NEW
** 
** OUTPUT REQUESTS
** 
*Restart, write, frequency=0
** 
** FIELD OUTPUT: F-Output-1
** 
*Output, field
*Node Output
NT, RF, U
*Element Output, directions=YES
HFL, PEEQ, S
** 
** HISTORY OUTPUT: H-Output-1
** 
*Output, history
*Energy Output
ALLAE, ALLIE, ALLKE, ALLPD, ALLSD, ALLSE, ALLWK, ETOTAL
*End Step
** ----------------------------------------------------------------
** 
** STEP: step_scan_14
** 
*Step, name=step_scan_14, nlgeom=YES, inc=999999
*Coupled Temperature-displacement, creep=none, deltmx=400.
0.001, 0.2, 2e-30, 0.01
** 
** LOADS
** 
** Name: load_body_hflux_14   Type: Body heat flux
*Dflux
inst_plate.set_body_heat_13, BF, 8e+10
** 
** OUTPUT REQUESTS
** 
*Restart, write, frequency=0
** 
** FIELD OUTPUT: F-Output-1
** 
*Output, field
*Node Output
NT, RF, U
*Element Output, directions=YES
HFL, PEEQ, S
** 
** HISTORY OUTPUT: H-Output-1
** 
*Output, history
*Energy Output
ALLAE, ALLIE, ALLKE, ALLPD, ALLSD, ALLSE, ALLWK, ETOTAL
*End Step
** ----------------------------------------------------------------
** 
** STEP: step_cool_14
** 
*Step, name=step_cool_14, nlgeom=YES, inc=999999
*Coupled Temperature-displacement, creep=none, deltmx=400.
0.01, 3.4, 3.4e-30, 0.2
** 
** LOADS
** 
** Name: load_body_hflux_14   Type: Body heat flux
*Dflux, op=NEW
** 
** OUTPUT REQUESTS
** 
*Restart, write, frequency=0
** 
** FIELD OUTPUT: F-Output-1
** 
*Output, field
*Node Output
NT, RF, U
*Element Output, directions=YES
HFL, PEEQ, S
** 
** HISTORY OUTPUT: H-Output-1
** 
*Output, history
*Energy Output
ALLAE, ALLIE, ALLKE, ALLPD, ALLSD, ALLSE, ALLWK, ETOTAL
*End Step
** ----------------------------------------------------------------
** 
** STEP: step_scan_15
** 
*Step, name=step_scan_15, nlgeom=YES, inc=999999
*Coupled Temperature-displacement, creep=none, deltmx=400.
0.001, 0.2, 2e-30, 0.01
** 
** LOADS
** 
** Name: load_body_hflux_15   Type: Body heat flux
*Dflux
inst_plate.set_body_heat_15, BF, 8e+10
** 
** OUTPUT REQUESTS
** 
*Restart, write, frequency=0
** 
** FIELD OUTPUT: F-Output-1
** 
*Output, field
*Node Output
NT, RF, U
*Element Output, directions=YES
HFL, PEEQ, S
** 
** HISTORY OUTPUT: H-Output-1
** 
*Output, history
*Energy Output
ALLAE, ALLIE, ALLKE, ALLPD, ALLSD, ALLSE, ALLWK, ETOTAL
*End Step
** ----------------------------------------------------------------
** 
** STEP: step_cool_15
** 
*Step, name=step_cool_15, nlgeom=YES, inc=999999
*Coupled Temperature-displacement, creep=none, deltmx=400.
0.01, 3.4, 3.4e-30, 0.2
** 
** LOADS
** 
** Name: load_body_hflux_15   Type: Body heat flux
*Dflux, op=NEW
** 
** OUTPUT REQUESTS
** 
*Restart, write, frequency=0
** 
** FIELD OUTPUT: F-Output-1
** 
*Output, field
*Node Output
NT, RF, U
*Element Output, directions=YES
HFL, PEEQ, S
** 
** HISTORY OUTPUT: H-Output-1
** 
*Output, history
*Energy Output
ALLAE, ALLIE, ALLKE, ALLPD, ALLSD, ALLSE, ALLWK, ETOTAL
*End Step
** ----------------------------------------------------------------
** 
** STEP: step_final_cooling
** 
*Step, name=step_final_cooling, nlgeom=YES, inc=999999
*Coupled Temperature-displacement, creep=none, deltmx=400.
0.01, 1200., 3.4e-30, 60.
** 
** OUTPUT REQUESTS
** 
*Restart, write, frequency=0
** 
** FIELD OUTPUT: F-Output-1
** 
*Output, field
*Node Output
NT, RF, U
*Element Output, directions=YES
HFL, PEEQ, S
** 
** HISTORY OUTPUT: H-Output-1
** 
*Output, history
*Energy Output
ALLAE, ALLIE, ALLKE, ALLPD, ALLSD, ALLSE, ALLWK, ETOTAL
*End Step
