*Heading
** Job name: J2D_N24_N24_A07_regular_jump_coprime Model name: Model-1
** Generated by: Abaqus/CAE 2024
*Preprint, echo=NO, model=NO, history=NO, contact=NO
**
** PARTS
**
*Part, name=part_plate
*Node
      1, 0.0500000007, 0.00200000009
      2, 0.0500000007,           0.
      3, 0.0520000011,           0.
      4, 0.0520000011, 0.00200000009
      5, 0.0500000007, 0.00300000003
      6, 0.0520000011, 0.00300000003
      7, 0.0480000004, 0.00200000009
      8, 0.0480000004,           0.
      9, 0.0480000004, 0.00300000003
     10, 0.0460000001, 0.00200000009
     11, 0.0460000001,           0.
     12, 0.0460000001, 0.00300000003
     13, 0.0439999998, 0.00200000009
     14, 0.0439999998,           0.
     15, 0.0439999998, 0.00300000003
     16, 0.0419999994, 0.00200000009
     17, 0.0419999994,           0.
     18, 0.0419999994, 0.00300000003
     19, 0.0399999991, 0.00200000009
     20, 0.0399999991,           0.
     21, 0.0399999991, 0.00300000003
     22, 0.0379999988, 0.00200000009
     23, 0.0379999988,           0.
     24, 0.0379999988, 0.00300000003
     25, 0.0359999985, 0.00200000009
     26, 0.0359999985,           0.
     27, 0.0359999985, 0.00300000003
     28, 0.0340000018, 0.00200000009
     29, 0.0340000018,           0.
     30, 0.0340000018, 0.00300000003
     31, 0.0320000015, 0.00200000009
     32, 0.0320000015,           0.
     33, 0.0320000015, 0.00300000003
     34, 0.0299999993, 0.00200000009
     35, 0.0299999993,           0.
     36, 0.0299999993, 0.00300000003
     37, 0.0280000009, 0.00200000009
     38, 0.0280000009,           0.
     39, 0.0280000009, 0.00300000003
     40, 0.0260000005, 0.00200000009
     41, 0.0260000005,           0.
     42, 0.0260000005, 0.00300000003
     43, 0.0240000002, 0.00200000009
     44, 0.0240000002,           0.
     45, 0.0240000002, 0.00300000003
     46, 0.0219999999, 0.00200000009
     47, 0.0219999999,           0.
     48, 0.0219999999, 0.00300000003
     49, 0.0199999996, 0.00200000009
     50, 0.0199999996,           0.
     51, 0.0199999996, 0.00300000003
     52, 0.0179999992, 0.00200000009
     53, 0.0179999992,           0.
     54, 0.0179999992, 0.00300000003
     55, 0.0160000008, 0.00200000009
     56, 0.0160000008,           0.
     57, 0.0160000008, 0.00300000003
     58, 0.0140000004, 0.00200000009
     59, 0.0140000004,           0.
     60, 0.0140000004, 0.00300000003
     61, 0.0120000001, 0.00200000009
     62, 0.0120000001,           0.
     63, 0.0120000001, 0.00300000003
     64, 0.00999999978, 0.00200000009
     65, 0.00999999978,           0.
     66, 0.00999999978, 0.00300000003
     67, 0.00800000038, 0.00200000009
     68, 0.00800000038,           0.
     69, 0.00800000038, 0.00300000003
     70, 0.00600000005, 0.00200000009
     71, 0.00600000005,           0.
     72, 0.00600000005, 0.00300000003
     73, 0.00400000019, 0.00200000009
     74, 0.00400000019,           0.
     75, 0.00400000019, 0.00300000003
     76, 0.00200000009, 0.00200000009
     77, 0.00200000009,           0.
     78,           0., 0.00200000009
     79,           0.,           0.
     80, 0.00200000009, 0.00300000003
     81,           0., 0.00300000003
     82, 0.0500000007, 0.00150000001
     83, 0.0500000007, 0.00100000005
     84, 0.0500000007, 0.000500000024
     85, 0.0505000018,           0.
     86,  0.050999999,           0.
     87, 0.0515000001,           0.
     88, 0.0520000011, 0.000500000024
     89, 0.0520000011, 0.00100000005
     90, 0.0520000011, 0.00150000001
     91, 0.0515000001, 0.00200000009
     92,  0.050999999, 0.00200000009
     93, 0.0505000018, 0.00200000009
     94, 0.0500000007, 0.00249999994
     95, 0.0520000011, 0.00249999994
     96, 0.0515000001, 0.00300000003
     97,  0.050999999, 0.00300000003
     98, 0.0505000018, 0.00300000003
     99, 0.0480000004, 0.00150000001
    100, 0.0480000004, 0.00100000005
    101, 0.0480000004, 0.000500000024
    102, 0.0485000014,           0.
    103, 0.0489999987,           0.
    104, 0.0494999997,           0.
    105, 0.0494999997, 0.00200000009
    106, 0.0489999987, 0.00200000009
    107, 0.0485000014, 0.00200000009
    108, 0.0480000004, 0.00249999994
    109, 0.0494999997, 0.00300000003
    110, 0.0489999987, 0.00300000003
    111, 0.0485000014, 0.00300000003
    112, 0.0474999994, 0.00200000009
    113, 0.0469999984, 0.00200000009
    114, 0.0465000011, 0.00200000009
    115, 0.0460000001, 0.00150000001
    116, 0.0460000001, 0.00100000005
    117, 0.0460000001, 0.000500000024
    118, 0.0465000011,           0.
    119, 0.0469999984,           0.
    120, 0.0474999994,           0.
    121, 0.0460000001, 0.00249999994
    122, 0.0474999994, 0.00300000003
    123, 0.0469999984, 0.00300000003
    124, 0.0465000011, 0.00300000003
    125, 0.0439999998, 0.00150000001
    126, 0.0439999998, 0.00100000005
    127, 0.0439999998, 0.000500000024
    128, 0.0445000008,           0.
    129, 0.0450000018,           0.
    130, 0.0454999991,           0.
    131, 0.0454999991, 0.00200000009
    132, 0.0450000018, 0.00200000009
    133, 0.0445000008, 0.00200000009
    134, 0.0439999998, 0.00249999994
    135, 0.0454999991, 0.00300000003
    136, 0.0450000018, 0.00300000003
    137, 0.0445000008, 0.00300000003
    138, 0.0419999994, 0.00150000001
    139, 0.0419999994, 0.00100000005
    140, 0.0419999994, 0.000500000024
    141, 0.0425000004,           0.
    142, 0.0430000015,           0.
    143, 0.0434999987,           0.
    144, 0.0434999987, 0.00200000009
    145, 0.0430000015, 0.00200000009
    146, 0.0425000004, 0.00200000009
    147, 0.0419999994, 0.00249999994
    148, 0.0434999987, 0.00300000003
    149, 0.0430000015, 0.00300000003
    150, 0.0425000004, 0.00300000003
    151, 0.0399999991, 0.00150000001
    152, 0.0399999991, 0.00100000005
    153, 0.0399999991, 0.000500000024
    154, 0.0405000001,           0.
    155, 0.0410000011,           0.
    156, 0.0414999984,           0.
    157, 0.0414999984, 0.00200000009
    158, 0.0410000011, 0.00200000009
    159, 0.0405000001, 0.00200000009
    160, 0.0399999991, 0.00249999994
    161, 0.0414999984, 0.00300000003
    162, 0.0410000011, 0.00300000003
    163, 0.0405000001, 0.00300000003
    164, 0.0379999988, 0.00150000001
    165, 0.0379999988, 0.00100000005
    166, 0.0379999988, 0.000500000024
    167, 0.0384999998,           0.
    168, 0.0390000008,           0.
    169, 0.0395000018,           0.
    170, 0.0395000018, 0.00200000009
    171, 0.0390000008, 0.00200000009
    172, 0.0384999998, 0.00200000009
    173, 0.0379999988, 0.00249999994
    174, 0.0395000018, 0.00300000003
    175, 0.0390000008, 0.00300000003
    176, 0.0384999998, 0.00300000003
    177, 0.0359999985, 0.00150000001
    178, 0.0359999985, 0.00100000005
    179, 0.0359999985, 0.000500000024
    180, 0.0364999995,           0.
    181, 0.0370000005,           0.
    182, 0.0375000015,           0.
    183, 0.0375000015, 0.00200000009
    184, 0.0370000005, 0.00200000009
    185, 0.0364999995, 0.00200000009
    186, 0.0359999985, 0.00249999994
    187, 0.0375000015, 0.00300000003
    188, 0.0370000005, 0.00300000003
    189, 0.0364999995, 0.00300000003
    190, 0.0340000018, 0.00150000001
    191, 0.0340000018, 0.00100000005
    192, 0.0340000018, 0.000500000024
    193, 0.0344999991,           0.
    194, 0.0350000001,           0.
    195, 0.0355000012,           0.
    196, 0.0355000012, 0.00200000009
    197, 0.0350000001, 0.00200000009
    198, 0.0344999991, 0.00200000009
    199, 0.0340000018, 0.00249999994
    200, 0.0355000012, 0.00300000003
    201, 0.0350000001, 0.00300000003
    202, 0.0344999991, 0.00300000003
    203, 0.0320000015, 0.00150000001
    204, 0.0320000015, 0.00100000005
    205, 0.0320000015, 0.000500000024
    206, 0.0324999988,           0.
    207, 0.0329999998,           0.
    208, 0.0335000008,           0.
    209, 0.0335000008, 0.00200000009
    210, 0.0329999998, 0.00200000009
    211, 0.0324999988, 0.00200000009
    212, 0.0320000015, 0.00249999994
    213, 0.0335000008, 0.00300000003
    214, 0.0329999998, 0.00300000003
    215, 0.0324999988, 0.00300000003
    216, 0.0299999993, 0.00150000001
    217, 0.0299999993, 0.00100000005
    218, 0.0299999993, 0.000500000024
    219, 0.0305000003,           0.
    220, 0.0309999995,           0.
    221, 0.0315000005,           0.
    222, 0.0315000005, 0.00200000009
    223, 0.0309999995, 0.00200000009
    224, 0.0305000003, 0.00200000009
    225, 0.0299999993, 0.00249999994
    226, 0.0315000005, 0.00300000003
    227, 0.0309999995, 0.00300000003
    228, 0.0305000003, 0.00300000003
    229, 0.0280000009, 0.00150000001
    230, 0.0280000009, 0.00100000005
    231, 0.0280000009, 0.000500000024
    232,       0.0285,           0.
    233, 0.0289999992,           0.
    234, 0.0295000002,           0.
    235, 0.0295000002, 0.00200000009
    236, 0.0289999992, 0.00200000009
    237,       0.0285, 0.00200000009
    238, 0.0280000009, 0.00249999994
    239, 0.0295000002, 0.00300000003
    240, 0.0289999992, 0.00300000003
    241,       0.0285, 0.00300000003
    242, 0.0260000005, 0.00150000001
    243, 0.0260000005, 0.00100000005
    244, 0.0260000005, 0.000500000024
    245, 0.0264999997,           0.
    246, 0.0270000007,           0.
    247, 0.0274999999,           0.
    248, 0.0274999999, 0.00200000009
    249, 0.0270000007, 0.00200000009
    250, 0.0264999997, 0.00200000009
    251, 0.0260000005, 0.00249999994
    252, 0.0274999999, 0.00300000003
    253, 0.0270000007, 0.00300000003
    254, 0.0264999997, 0.00300000003
    255, 0.0240000002, 0.00150000001
    256, 0.0240000002, 0.00100000005
    257, 0.0240000002, 0.000500000024
    258, 0.0244999994,           0.
    259, 0.0250000004,           0.
    260, 0.0254999995,           0.
    261, 0.0254999995, 0.00200000009
    262, 0.0250000004, 0.00200000009
    263, 0.0244999994, 0.00200000009
    264, 0.0240000002, 0.00249999994
    265, 0.0254999995, 0.00300000003
    266, 0.0250000004, 0.00300000003
    267, 0.0244999994, 0.00300000003
    268, 0.0219999999, 0.00150000001
    269, 0.0219999999, 0.00100000005
    270, 0.0219999999, 0.000500000024
    271, 0.0225000009,           0.
    272,        0.023,           0.
    273, 0.0234999992,           0.
    274, 0.0234999992, 0.00200000009
    275,        0.023, 0.00200000009
    276, 0.0225000009, 0.00200000009
    277, 0.0219999999, 0.00249999994
    278, 0.0234999992, 0.00300000003
    279,        0.023, 0.00300000003
    280, 0.0225000009, 0.00300000003
    281, 0.0199999996, 0.00150000001
    282, 0.0199999996, 0.00100000005
    283, 0.0199999996, 0.000500000024
    284, 0.0205000006,           0.
    285, 0.0209999997,           0.
    286, 0.0215000007,           0.
    287, 0.0215000007, 0.00200000009
    288, 0.0209999997, 0.00200000009
    289, 0.0205000006, 0.00200000009
    290, 0.0199999996, 0.00249999994
    291, 0.0215000007, 0.00300000003
    292, 0.0209999997, 0.00300000003
    293, 0.0205000006, 0.00300000003
    294, 0.0179999992, 0.00150000001
    295, 0.0179999992, 0.00100000005
    296, 0.0179999992, 0.000500000024
    297, 0.0185000002,           0.
    298, 0.0189999994,           0.
    299, 0.0195000004,           0.
    300, 0.0195000004, 0.00200000009
    301, 0.0189999994, 0.00200000009
    302, 0.0185000002, 0.00200000009
    303, 0.0179999992, 0.00249999994
    304, 0.0195000004, 0.00300000003
    305, 0.0189999994, 0.00300000003
    306, 0.0185000002, 0.00300000003
    307, 0.0160000008, 0.00150000001
    308, 0.0160000008, 0.00100000005
    309, 0.0160000008, 0.000500000024
    310, 0.0164999999,           0.
    311, 0.0170000009,           0.
    312, 0.0175000001,           0.
    313, 0.0175000001, 0.00200000009
    314, 0.0170000009, 0.00200000009
    315, 0.0164999999, 0.00200000009
    316, 0.0160000008, 0.00249999994
    317, 0.0175000001, 0.00300000003
    318, 0.0170000009, 0.00300000003
    319, 0.0164999999, 0.00300000003
    320, 0.0140000004, 0.00150000001
    321, 0.0140000004, 0.00100000005
    322, 0.0140000004, 0.000500000024
    323, 0.0144999996,           0.
    324, 0.0149999997,           0.
    325, 0.0154999997,           0.
    326, 0.0154999997, 0.00200000009
    327, 0.0149999997, 0.00200000009
    328, 0.0144999996, 0.00200000009
    329, 0.0140000004, 0.00249999994
    330, 0.0154999997, 0.00300000003
    331, 0.0149999997, 0.00300000003
    332, 0.0144999996, 0.00300000003
    333, 0.0120000001, 0.00150000001
    334, 0.0120000001, 0.00100000005
    335, 0.0120000001, 0.000500000024
    336, 0.0125000002,           0.
    337, 0.0130000003,           0.
    338, 0.0135000004,           0.
    339, 0.0135000004, 0.00200000009
    340, 0.0130000003, 0.00200000009
    341, 0.0125000002, 0.00200000009
    342, 0.0120000001, 0.00249999994
    343, 0.0135000004, 0.00300000003
    344, 0.0130000003, 0.00300000003
    345, 0.0125000002, 0.00300000003
    346, 0.00999999978, 0.00150000001
    347, 0.00999999978, 0.00100000005
    348, 0.00999999978, 0.000500000024
    349, 0.0104999999,           0.
    350, 0.0109999999,           0.
    351,       0.0115,           0.
    352,       0.0115, 0.00200000009
    353, 0.0109999999, 0.00200000009
    354, 0.0104999999, 0.00200000009
    355, 0.00999999978, 0.00249999994
    356,       0.0115, 0.00300000003
    357, 0.0109999999, 0.00300000003
    358, 0.0104999999, 0.00300000003
    359, 0.00800000038, 0.00150000001
    360, 0.00800000038, 0.00100000005
    361, 0.00800000038, 0.000500000024
    362, 0.00850000046,           0.
    363, 0.00899999961,           0.
    364, 0.00949999969,           0.
    365, 0.00949999969, 0.00200000009
    366, 0.00899999961, 0.00200000009
    367, 0.00850000046, 0.00200000009
    368, 0.00800000038, 0.00249999994
    369, 0.00949999969, 0.00300000003
    370, 0.00899999961, 0.00300000003
    371, 0.00850000046, 0.00300000003
    372, 0.00600000005, 0.00150000001
    373, 0.00600000005, 0.00100000005
    374, 0.00600000005, 0.000500000024
    375, 0.00650000013,           0.
    376, 0.00700000022,           0.
    377, 0.00749999983,           0.
    378, 0.00749999983, 0.00200000009
    379, 0.00700000022, 0.00200000009
    380, 0.00650000013, 0.00200000009
    381, 0.00600000005, 0.00249999994
    382, 0.00749999983, 0.00300000003
    383, 0.00700000022, 0.00300000003
    384, 0.00650000013, 0.00300000003
    385, 0.00400000019, 0.00150000001
    386, 0.00400000019, 0.00100000005
    387, 0.00400000019, 0.000500000024
    388, 0.00449999981,           0.
    389, 0.00499999989,           0.
    390, 0.00549999997,           0.
    391, 0.00549999997, 0.00200000009
    392, 0.00499999989, 0.00200000009
    393, 0.00449999981, 0.00200000009
    394, 0.00400000019, 0.00249999994
    395, 0.00549999997, 0.00300000003
    396, 0.00499999989, 0.00300000003
    397, 0.00449999981, 0.00300000003
    398, 0.00200000009, 0.00150000001
    399, 0.00200000009, 0.00100000005
    400, 0.00200000009, 0.000500000024
    401, 0.00249999994,           0.
    402, 0.00300000003,           0.
    403, 0.00350000011,           0.
    404, 0.00350000011, 0.00200000009
    405, 0.00300000003, 0.00200000009
    406, 0.00249999994, 0.00200000009
    407, 0.00150000001, 0.00200000009
    408, 0.00100000005, 0.00200000009
    409, 0.000500000024, 0.00200000009
    410,           0., 0.00150000001
    411,           0., 0.00100000005
    412,           0., 0.000500000024
    413, 0.000500000024,           0.
    414, 0.00100000005,           0.
    415, 0.00150000001,           0.
    416, 0.00200000009, 0.00249999994
    417, 0.00350000011, 0.00300000003
    418, 0.00300000003, 0.00300000003
    419, 0.00249999994, 0.00300000003
    420, 0.00150000001, 0.00300000003
    421, 0.00100000005, 0.00300000003
    422, 0.000500000024, 0.00300000003
    423,           0., 0.00249999994
    424, 0.0505000018, 0.00150000001
    425, 0.0505000018, 0.00100000005
    426, 0.0505000018, 0.000500000024
    427,  0.050999999, 0.00150000001
    428,  0.050999999, 0.00100000005
    429,  0.050999999, 0.000500000024
    430, 0.0515000001, 0.00150000001
    431, 0.0515000001, 0.00100000005
    432, 0.0515000001, 0.000500000024
    433, 0.0505000018, 0.00249999994
    434,  0.050999999, 0.00249999994
    435, 0.0515000001, 0.00249999994
    436, 0.0485000014, 0.00150000001
    437, 0.0485000014, 0.00100000005
    438, 0.0485000014, 0.000500000024
    439, 0.0489999987, 0.00150000001
    440, 0.0489999987, 0.00100000005
    441, 0.0489999987, 0.000500000024
    442, 0.0494999997, 0.00150000001
    443, 0.0494999997, 0.00100000005
    444, 0.0494999997, 0.000500000024
    445, 0.0485000014, 0.00249999994
    446, 0.0489999987, 0.00249999994
    447, 0.0494999997, 0.00249999994
    448, 0.0474999994, 0.000500000024
    449, 0.0474999994, 0.00100000005
    450, 0.0474999994, 0.00150000001
    451, 0.0469999984, 0.000500000024
    452, 0.0469999984, 0.00100000005
    453, 0.0469999984, 0.00150000001
    454, 0.0465000011, 0.000500000024
    455, 0.0465000011, 0.00100000005
    456, 0.0465000011, 0.00150000001
    457, 0.0465000011, 0.00249999994
    458, 0.0469999984, 0.00249999994
    459, 0.0474999994, 0.00249999994
    460, 0.0445000008, 0.00150000001
    461, 0.0445000008, 0.00100000005
    462, 0.0445000008, 0.000500000024
    463, 0.0450000018, 0.00150000001
    464, 0.0450000018, 0.00100000005
    465, 0.0450000018, 0.000500000024
    466, 0.0454999991, 0.00150000001
    467, 0.0454999991, 0.00100000005
    468, 0.0454999991, 0.000500000024
    469, 0.0445000008, 0.00249999994
    470, 0.0450000018, 0.00249999994
    471, 0.0454999991, 0.00249999994
    472, 0.0425000004, 0.00150000001
    473, 0.0425000004, 0.00100000005
    474, 0.0425000004, 0.000500000024
    475, 0.0430000015, 0.00150000001
    476, 0.0430000015, 0.00100000005
    477, 0.0430000015, 0.000500000024
    478, 0.0434999987, 0.00150000001
    479, 0.0434999987, 0.00100000005
    480, 0.0434999987, 0.000500000024
    481, 0.0425000004, 0.00249999994
    482, 0.0430000015, 0.00249999994
    483, 0.0434999987, 0.00249999994
    484, 0.0405000001, 0.00150000001
    485, 0.0405000001, 0.00100000005
    486, 0.0405000001, 0.000500000024
    487, 0.0410000011, 0.00150000001
    488, 0.0410000011, 0.00100000005
    489, 0.0410000011, 0.000500000024
    490, 0.0414999984, 0.00150000001
    491, 0.0414999984, 0.00100000005
    492, 0.0414999984, 0.000500000024
    493, 0.0405000001, 0.00249999994
    494, 0.0410000011, 0.00249999994
    495, 0.0414999984, 0.00249999994
    496, 0.0384999998, 0.00150000001
    497, 0.0384999998, 0.00100000005
    498, 0.0384999998, 0.000500000024
    499, 0.0390000008, 0.00150000001
    500, 0.0390000008, 0.00100000005
    501, 0.0390000008, 0.000500000024
    502, 0.0395000018, 0.00150000001
    503, 0.0395000018, 0.00100000005
    504, 0.0395000018, 0.000500000024
    505, 0.0384999998, 0.00249999994
    506, 0.0390000008, 0.00249999994
    507, 0.0395000018, 0.00249999994
    508, 0.0364999995, 0.00150000001
    509, 0.0364999995, 0.00100000005
    510, 0.0364999995, 0.000500000024
    511, 0.0370000005, 0.00150000001
    512, 0.0370000005, 0.00100000005
    513, 0.0370000005, 0.000500000024
    514, 0.0375000015, 0.00150000001
    515, 0.0375000015, 0.00100000005
    516, 0.0375000015, 0.000500000024
    517, 0.0364999995, 0.00249999994
    518, 0.0370000005, 0.00249999994
    519, 0.0375000015, 0.00249999994
    520, 0.0344999991, 0.00150000001
    521, 0.0344999991, 0.00100000005
    522, 0.0344999991, 0.000500000024
    523, 0.0350000001, 0.00150000001
    524, 0.0350000001, 0.00100000005
    525, 0.0350000001, 0.000500000024
    526, 0.0355000012, 0.00150000001
    527, 0.0355000012, 0.00100000005
    528, 0.0355000012, 0.000500000024
    529, 0.0344999991, 0.00249999994
    530, 0.0350000001, 0.00249999994
    531, 0.0355000012, 0.00249999994
    532, 0.0324999988, 0.00150000001
    533, 0.0324999988, 0.00100000005
    534, 0.0324999988, 0.000500000024
    535, 0.0329999998, 0.00150000001
    536, 0.0329999998, 0.00100000005
    537, 0.0329999998, 0.000500000024
    538, 0.0335000008, 0.00150000001
    539, 0.0335000008, 0.00100000005
    540, 0.0335000008, 0.000500000024
    541, 0.0324999988, 0.00249999994
    542, 0.0329999998, 0.00249999994
    543, 0.0335000008, 0.00249999994
    544, 0.0305000003, 0.00150000001
    545, 0.0305000003, 0.00100000005
    546, 0.0305000003, 0.000500000024
    547, 0.0309999995, 0.00150000001
    548, 0.0309999995, 0.00100000005
    549, 0.0309999995, 0.000500000024
    550, 0.0315000005, 0.00150000001
    551, 0.0315000005, 0.00100000005
    552, 0.0315000005, 0.000500000024
    553, 0.0305000003, 0.00249999994
    554, 0.0309999995, 0.00249999994
    555, 0.0315000005, 0.00249999994
    556,       0.0285, 0.00150000001
    557,       0.0285, 0.00100000005
    558,       0.0285, 0.000500000024
    559, 0.0289999992, 0.00150000001
    560, 0.0289999992, 0.00100000005
    561, 0.0289999992, 0.000500000024
    562, 0.0295000002, 0.00150000001
    563, 0.0295000002, 0.00100000005
    564, 0.0295000002, 0.000500000024
    565,       0.0285, 0.00249999994
    566, 0.0289999992, 0.00249999994
    567, 0.0295000002, 0.00249999994
    568, 0.0264999997, 0.00150000001
    569, 0.0264999997, 0.00100000005
    570, 0.0264999997, 0.000500000024
    571, 0.0270000007, 0.00150000001
    572, 0.0270000007, 0.00100000005
    573, 0.0270000007, 0.000500000024
    574, 0.0274999999, 0.00150000001
    575, 0.0274999999, 0.00100000005
    576, 0.0274999999, 0.000500000024
    577, 0.0264999997, 0.00249999994
    578, 0.0270000007, 0.00249999994
    579, 0.0274999999, 0.00249999994
    580, 0.0244999994, 0.00150000001
    581, 0.0244999994, 0.00100000005
    582, 0.0244999994, 0.000500000024
    583, 0.0250000004, 0.00150000001
    584, 0.0250000004, 0.00100000005
    585, 0.0250000004, 0.000500000024
    586, 0.0254999995, 0.00150000001
    587, 0.0254999995, 0.00100000005
    588, 0.0254999995, 0.000500000024
    589, 0.0244999994, 0.00249999994
    590, 0.0250000004, 0.00249999994
    591, 0.0254999995, 0.00249999994
    592, 0.0225000009, 0.00150000001
    593, 0.0225000009, 0.00100000005
    594, 0.0225000009, 0.000500000024
    595,        0.023, 0.00150000001
    596,        0.023, 0.00100000005
    597,        0.023, 0.000500000024
    598, 0.0234999992, 0.00150000001
    599, 0.0234999992, 0.00100000005
    600, 0.0234999992, 0.000500000024
    601, 0.0225000009, 0.00249999994
    602,        0.023, 0.00249999994
    603, 0.0234999992, 0.00249999994
    604, 0.0205000006, 0.00150000001
    605, 0.0205000006, 0.00100000005
    606, 0.0205000006, 0.000500000024
    607, 0.0209999997, 0.00150000001
    608, 0.0209999997, 0.00100000005
    609, 0.0209999997, 0.000500000024
    610, 0.0215000007, 0.00150000001
    611, 0.0215000007, 0.00100000005
    612, 0.0215000007, 0.000500000024
    613, 0.0205000006, 0.00249999994
    614, 0.0209999997, 0.00249999994
    615, 0.0215000007, 0.00249999994
    616, 0.0185000002, 0.00150000001
    617, 0.0185000002, 0.00100000005
    618, 0.0185000002, 0.000500000024
    619, 0.0189999994, 0.00150000001
    620, 0.0189999994, 0.00100000005
    621, 0.0189999994, 0.000500000024
    622, 0.0195000004, 0.00150000001
    623, 0.0195000004, 0.00100000005
    624, 0.0195000004, 0.000500000024
    625, 0.0185000002, 0.00249999994
    626, 0.0189999994, 0.00249999994
    627, 0.0195000004, 0.00249999994
    628, 0.0164999999, 0.00150000001
    629, 0.0164999999, 0.00100000005
    630, 0.0164999999, 0.000500000024
    631, 0.0170000009, 0.00150000001
    632, 0.0170000009, 0.00100000005
    633, 0.0170000009, 0.000500000024
    634, 0.0175000001, 0.00150000001
    635, 0.0175000001, 0.00100000005
    636, 0.0175000001, 0.000500000024
    637, 0.0164999999, 0.00249999994
    638, 0.0170000009, 0.00249999994
    639, 0.0175000001, 0.00249999994
    640, 0.0144999996, 0.00150000001
    641, 0.0144999996, 0.00100000005
    642, 0.0144999996, 0.000500000024
    643, 0.0149999997, 0.00150000001
    644, 0.0149999997, 0.00100000005
    645, 0.0149999997, 0.000500000024
    646, 0.0154999997, 0.00150000001
    647, 0.0154999997, 0.00100000005
    648, 0.0154999997, 0.000500000024
    649, 0.0144999996, 0.00249999994
    650, 0.0149999997, 0.00249999994
    651, 0.0154999997, 0.00249999994
    652, 0.0125000002, 0.00150000001
    653, 0.0125000002, 0.00100000005
    654, 0.0125000002, 0.000500000024
    655, 0.0130000003, 0.00150000001
    656, 0.0130000003, 0.00100000005
    657, 0.0130000003, 0.000500000024
    658, 0.0135000004, 0.00150000001
    659, 0.0135000004, 0.00100000005
    660, 0.0135000004, 0.000500000024
    661, 0.0125000002, 0.00249999994
    662, 0.0130000003, 0.00249999994
    663, 0.0135000004, 0.00249999994
    664, 0.0104999999, 0.00150000001
    665, 0.0104999999, 0.00100000005
    666, 0.0104999999, 0.000500000024
    667, 0.0109999999, 0.00150000001
    668, 0.0109999999, 0.00100000005
    669, 0.0109999999, 0.000500000024
    670,       0.0115, 0.00150000001
    671,       0.0115, 0.00100000005
    672,       0.0115, 0.000500000024
    673, 0.0104999999, 0.00249999994
    674, 0.0109999999, 0.00249999994
    675,       0.0115, 0.00249999994
    676, 0.00850000046, 0.00150000001
    677, 0.00850000046, 0.00100000005
    678, 0.00850000046, 0.000500000024
    679, 0.00899999961, 0.00150000001
    680, 0.00899999961, 0.00100000005
    681, 0.00899999961, 0.000500000024
    682, 0.00949999969, 0.00150000001
    683, 0.00949999969, 0.00100000005
    684, 0.00949999969, 0.000500000024
    685, 0.00850000046, 0.00249999994
    686, 0.00899999961, 0.00249999994
    687, 0.00949999969, 0.00249999994
    688, 0.00650000013, 0.00150000001
    689, 0.00650000013, 0.00100000005
    690, 0.00650000013, 0.000500000024
    691, 0.00700000022, 0.00150000001
    692, 0.00700000022, 0.00100000005
    693, 0.00700000022, 0.000500000024
    694, 0.00749999983, 0.00150000001
    695, 0.00749999983, 0.00100000005
    696, 0.00749999983, 0.000500000024
    697, 0.00650000013, 0.00249999994
    698, 0.00700000022, 0.00249999994
    699, 0.00749999983, 0.00249999994
    700, 0.00449999981, 0.00150000001
    701, 0.00449999981, 0.00100000005
    702, 0.00449999981, 0.000500000024
    703, 0.00499999989, 0.00150000001
    704, 0.00499999989, 0.00100000005
    705, 0.00499999989, 0.000500000024
    706, 0.00549999997, 0.00150000001
    707, 0.00549999997, 0.00100000005
    708, 0.00549999997, 0.000500000024
    709, 0.00449999981, 0.00249999994
    710, 0.00499999989, 0.00249999994
    711, 0.00549999997, 0.00249999994
    712, 0.00249999994, 0.00150000001
    713, 0.00249999994, 0.00100000005
    714, 0.00249999994, 0.000500000024
    715, 0.00300000003, 0.00150000001
    716, 0.00300000003, 0.00100000005
    717, 0.00300000003, 0.000500000024
    718, 0.00350000011, 0.00150000001
    719, 0.00350000011, 0.00100000005
    720, 0.00350000011, 0.000500000024
    721, 0.00150000001, 0.00150000001
    722, 0.00100000005, 0.00150000001
    723, 0.000500000024, 0.00150000001
    724, 0.00150000001, 0.00100000005
    725, 0.00100000005, 0.00100000005
    726, 0.000500000024, 0.00100000005
    727, 0.00150000001, 0.000500000024
    728, 0.00100000005, 0.000500000024
    729, 0.000500000024, 0.000500000024
    730, 0.00249999994, 0.00249999994
    731, 0.00300000003, 0.00249999994
    732, 0.00350000011, 0.00249999994
    733, 0.00150000001, 0.00249999994
    734, 0.00100000005, 0.00249999994
    735, 0.000500000024, 0.00249999994
*Element, type=CPE4T
 1,   1,  82, 424,  93
 2,  82,  83, 425, 424
 3,  83,  84, 426, 425
 4,  84,   2,  85, 426
 5,  93, 424, 427,  92
 6, 424, 425, 428, 427
 7, 425, 426, 429, 428
 8, 426,  85,  86, 429
 9,  92, 427, 430,  91
10, 427, 428, 431, 430
11, 428, 429, 432, 431
12, 429,  86,  87, 432
13,  91, 430,  90,   4
14, 430, 431,  89,  90
15, 431, 432,  88,  89
16, 432,  87,   3,  88
17,   5,  94, 433,  98
18,  94,   1,  93, 433
19,  98, 433, 434,  97
20, 433,  93,  92, 434
21,  97, 434, 435,  96
22, 434,  92,  91, 435
23,  96, 435,  95,   6
24, 435,  91,   4,  95
25,   7,  99, 436, 107
26,  99, 100, 437, 436
27, 100, 101, 438, 437
28, 101,   8, 102, 438
29, 107, 436, 439, 106
30, 436, 437, 440, 439
31, 437, 438, 441, 440
32, 438, 102, 103, 441
33, 106, 439, 442, 105
34, 439, 440, 443, 442
35, 440, 441, 444, 443
36, 441, 103, 104, 444
37, 105, 442,  82,   1
38, 442, 443,  83,  82
39, 443, 444,  84,  83
40, 444, 104,   2,  84
41,   9, 108, 445, 111
42, 108,   7, 107, 445
43, 111, 445, 446, 110
44, 445, 107, 106, 446
45, 110, 446, 447, 109
46, 446, 106, 105, 447
47, 109, 447,  94,   5
48, 447, 105,   1,  94
49,   8, 101, 448, 120
50, 101, 100, 449, 448
51, 100,  99, 450, 449
52,  99,   7, 112, 450
53, 120, 448, 451, 119
54, 448, 449, 452, 451
55, 449, 450, 453, 452
56, 450, 112, 113, 453
57, 119, 451, 454, 118
58, 451, 452, 455, 454
59, 452, 453, 456, 455
60, 453, 113, 114, 456
61, 118, 454, 117,  11
62, 454, 455, 116, 117
63, 455, 456, 115, 116
64, 456, 114,  10, 115
65,  12, 121, 457, 124
66, 121,  10, 114, 457
67, 124, 457, 458, 123
68, 457, 114, 113, 458
69, 123, 458, 459, 122
70, 458, 113, 112, 459
71, 122, 459, 108,   9
72, 459, 112,   7, 108
73,  13, 125, 460, 133
74, 125, 126, 461, 460
75, 126, 127, 462, 461
76, 127,  14, 128, 462
77, 133, 460, 463, 132
78, 460, 461, 464, 463
79, 461, 462, 465, 464
80, 462, 128, 129, 465
81, 132, 463, 466, 131
82, 463, 464, 467, 466
83, 464, 465, 468, 467
84, 465, 129, 130, 468
85, 131, 466, 115,  10
86, 466, 467, 116, 115
87, 467, 468, 117, 116
88, 468, 130,  11, 117
89,  15, 134, 469, 137
90, 134,  13, 133, 469
91, 137, 469, 470, 136
92, 469, 133, 132, 470
93, 136, 470, 471, 135
94, 470, 132, 131, 471
95, 135, 471, 121,  12
96, 471, 131,  10, 121
 97,  16, 138, 472, 146
 98, 138, 139, 473, 472
 99, 139, 140, 474, 473
100, 140,  17, 141, 474
101, 146, 472, 475, 145
102, 472, 473, 476, 475
103, 473, 474, 477, 476
104, 474, 141, 142, 477
105, 145, 475, 478, 144
106, 475, 476, 479, 478
107, 476, 477, 480, 479
108, 477, 142, 143, 480
109, 144, 478, 125,  13
110, 478, 479, 126, 125
111, 479, 480, 127, 126
112, 480, 143,  14, 127
113,  18, 147, 481, 150
114, 147,  16, 146, 481
115, 150, 481, 482, 149
116, 481, 146, 145, 482
117, 149, 482, 483, 148
118, 482, 145, 144, 483
119, 148, 483, 134,  15
120, 483, 144,  13, 134
121,  19, 151, 484, 159
122, 151, 152, 485, 484
123, 152, 153, 486, 485
124, 153,  20, 154, 486
125, 159, 484, 487, 158
126, 484, 485, 488, 487
127, 485, 486, 489, 488
128, 486, 154, 155, 489
129, 158, 487, 490, 157
130, 487, 488, 491, 490
131, 488, 489, 492, 491
132, 489, 155, 156, 492
133, 157, 490, 138,  16
134, 490, 491, 139, 138
135, 491, 492, 140, 139
136, 492, 156,  17, 140
137,  21, 160, 493, 163
138, 160,  19, 159, 493
139, 163, 493, 494, 162
140, 493, 159, 158, 494
141, 162, 494, 495, 161
142, 494, 158, 157, 495
143, 161, 495, 147,  18
144, 495, 157,  16, 147
145,  22, 164, 496, 172
146, 164, 165, 497, 496
147, 165, 166, 498, 497
148, 166,  23, 167, 498
149, 172, 496, 499, 171
150, 496, 497, 500, 499
151, 497, 498, 501, 500
152, 498, 167, 168, 501
153, 171, 499, 502, 170
154, 499, 500, 503, 502
155, 500, 501, 504, 503
156, 501, 168, 169, 504
157, 170, 502, 151,  19
158, 502, 503, 152, 151
159, 503, 504, 153, 152
160, 504, 169,  20, 153
161,  24, 173, 505, 176
162, 173,  22, 172, 505
163, 176, 505, 506, 175
164, 505, 172, 171, 506
165, 175, 506, 507, 174
166, 506, 171, 170, 507
167, 174, 507, 160,  21
168, 507, 170,  19, 160
169,  25, 177, 508, 185
170, 177, 178, 509, 508
171, 178, 179, 510, 509
172, 179,  26, 180, 510
173, 185, 508, 511, 184
174, 508, 509, 512, 511
175, 509, 510, 513, 512
176, 510, 180, 181, 513
177, 184, 511, 514, 183
178, 511, 512, 515, 514
179, 512, 513, 516, 515
180, 513, 181, 182, 516
181, 183, 514, 164,  22
182, 514, 515, 165, 164
183, 515, 516, 166, 165
184, 516, 182,  23, 166
185,  27, 186, 517, 189
186, 186,  25, 185, 517
187, 189, 517, 518, 188
188, 517, 185, 184, 518
189, 188, 518, 519, 187
190, 518, 184, 183, 519
191, 187, 519, 173,  24
192, 519, 183,  22, 173
193,  28, 190, 520, 198
194, 190, 191, 521, 520
195, 191, 192, 522, 521
196, 192,  29, 193, 522
197, 198, 520, 523, 197
198, 520, 521, 524, 523
199, 521, 522, 525, 524
200, 522, 193, 194, 525
201, 197, 523, 526, 196
202, 523, 524, 527, 526
203, 524, 525, 528, 527
204, 525, 194, 195, 528
205, 196, 526, 177,  25
206, 526, 527, 178, 177
207, 527, 528, 179, 178
208, 528, 195,  26, 179
209,  30, 199, 529, 202
210, 199,  28, 198, 529
211, 202, 529, 530, 201
212, 529, 198, 197, 530
213, 201, 530, 531, 200
214, 530, 197, 196, 531
215, 200, 531, 186,  27
216, 531, 196,  25, 186
217,  31, 203, 532, 211
218, 203, 204, 533, 532
219, 204, 205, 534, 533
220, 205,  32, 206, 534
221, 211, 532, 535, 210
222, 532, 533, 536, 535
223, 533, 534, 537, 536
224, 534, 206, 207, 537
225, 210, 535, 538, 209
226, 535, 536, 539, 538
227, 536, 537, 540, 539
228, 537, 207, 208, 540
229, 209, 538, 190,  28
230, 538, 539, 191, 190
231, 539, 540, 192, 191
232, 540, 208,  29, 192
233,  33, 212, 541, 215
234, 212,  31, 211, 541
235, 215, 541, 542, 214
236, 541, 211, 210, 542
237, 214, 542, 543, 213
238, 542, 210, 209, 543
239, 213, 543, 199,  30
240, 543, 209,  28, 199
241,  34, 216, 544, 224
242, 216, 217, 545, 544
243, 217, 218, 546, 545
244, 218,  35, 219, 546
245, 224, 544, 547, 223
246, 544, 545, 548, 547
247, 545, 546, 549, 548
248, 546, 219, 220, 549
249, 223, 547, 550, 222
250, 547, 548, 551, 550
251, 548, 549, 552, 551
252, 549, 220, 221, 552
253, 222, 550, 203,  31
254, 550, 551, 204, 203
255, 551, 552, 205, 204
256, 552, 221,  32, 205
257,  36, 225, 553, 228
258, 225,  34, 224, 553
259, 228, 553, 554, 227
260, 553, 224, 223, 554
261, 227, 554, 555, 226
262, 554, 223, 222, 555
263, 226, 555, 212,  33
264, 555, 222,  31, 212
265,  37, 229, 556, 237
266, 229, 230, 557, 556
267, 230, 231, 558, 557
268, 231,  38, 232, 558
269, 237, 556, 559, 236
270, 556, 557, 560, 559
271, 557, 558, 561, 560
272, 558, 232, 233, 561
273, 236, 559, 562, 235
274, 559, 560, 563, 562
275, 560, 561, 564, 563
276, 561, 233, 234, 564
277, 235, 562, 216,  34
278, 562, 563, 217, 216
279, 563, 564, 218, 217
280, 564, 234,  35, 218
281,  39, 238, 565, 241
282, 238,  37, 237, 565
283, 241, 565, 566, 240
284, 565, 237, 236, 566
285, 240, 566, 567, 239
286, 566, 236, 235, 567
287, 239, 567, 225,  36
288, 567, 235,  34, 225
289,  40, 242, 568, 250
290, 242, 243, 569, 568
291, 243, 244, 570, 569
292, 244,  41, 245, 570
293, 250, 568, 571, 249
294, 568, 569, 572, 571
295, 569, 570, 573, 572
296, 570, 245, 246, 573
297, 249, 571, 574, 248
298, 571, 572, 575, 574
299, 572, 573, 576, 575
300, 573, 246, 247, 576
301, 248, 574, 229,  37
302, 574, 575, 230, 229
303, 575, 576, 231, 230
304, 576, 247,  38, 231
305,  42, 251, 577, 254
306, 251,  40, 250, 577
307, 254, 577, 578, 253
308, 577, 250, 249, 578
309, 253, 578, 579, 252
310, 578, 249, 248, 579
311, 252, 579, 238,  39
312, 579, 248,  37, 238
313,  43, 255, 580, 263
314, 255, 256, 581, 580
315, 256, 257, 582, 581
316, 257,  44, 258, 582
317, 263, 580, 583, 262
318, 580, 581, 584, 583
319, 581, 582, 585, 584
320, 582, 258, 259, 585
321, 262, 583, 586, 261
322, 583, 584, 587, 586
323, 584, 585, 588, 587
324, 585, 259, 260, 588
325, 261, 586, 242,  40
326, 586, 587, 243, 242
327, 587, 588, 244, 243
328, 588, 260,  41, 244
329,  45, 264, 589, 267
330, 264,  43, 263, 589
331, 267, 589, 590, 266
332, 589, 263, 262, 590
333, 266, 590, 591, 265
334, 590, 262, 261, 591
335, 265, 591, 251,  42
336, 591, 261,  40, 251
337,  46, 268, 592, 276
338, 268, 269, 593, 592
339, 269, 270, 594, 593
340, 270,  47, 271, 594
341, 276, 592, 595, 275
342, 592, 593, 596, 595
343, 593, 594, 597, 596
344, 594, 271, 272, 597
345, 275, 595, 598, 274
346, 595, 596, 599, 598
347, 596, 597, 600, 599
348, 597, 272, 273, 600
349, 274, 598, 255,  43
350, 598, 599, 256, 255
351, 599, 600, 257, 256
352, 600, 273,  44, 257
353,  48, 277, 601, 280
354, 277,  46, 276, 601
355, 280, 601, 602, 279
356, 601, 276, 275, 602
357, 279, 602, 603, 278
358, 602, 275, 274, 603
359, 278, 603, 264,  45
360, 603, 274,  43, 264
361,  49, 281, 604, 289
362, 281, 282, 605, 604
363, 282, 283, 606, 605
364, 283,  50, 284, 606
365, 289, 604, 607, 288
366, 604, 605, 608, 607
367, 605, 606, 609, 608
368, 606, 284, 285, 609
369, 288, 607, 610, 287
370, 607, 608, 611, 610
371, 608, 609, 612, 611
372, 609, 285, 286, 612
373, 287, 610, 268,  46
374, 610, 611, 269, 268
375, 611, 612, 270, 269
376, 612, 286,  47, 270
377,  51, 290, 613, 293
378, 290,  49, 289, 613
379, 293, 613, 614, 292
380, 613, 289, 288, 614
381, 292, 614, 615, 291
382, 614, 288, 287, 615
383, 291, 615, 277,  48
384, 615, 287,  46, 277
385,  52, 294, 616, 302
386, 294, 295, 617, 616
387, 295, 296, 618, 617
388, 296,  53, 297, 618
389, 302, 616, 619, 301
390, 616, 617, 620, 619
391, 617, 618, 621, 620
392, 618, 297, 298, 621
393, 301, 619, 622, 300
394, 619, 620, 623, 622
395, 620, 621, 624, 623
396, 621, 298, 299, 624
397, 300, 622, 281,  49
398, 622, 623, 282, 281
399, 623, 624, 283, 282
400, 624, 299,  50, 283
401,  54, 303, 625, 306
402, 303,  52, 302, 625
403, 306, 625, 626, 305
404, 625, 302, 301, 626
405, 305, 626, 627, 304
406, 626, 301, 300, 627
407, 304, 627, 290,  51
408, 627, 300,  49, 290
409,  55, 307, 628, 315
410, 307, 308, 629, 628
411, 308, 309, 630, 629
412, 309,  56, 310, 630
413, 315, 628, 631, 314
414, 628, 629, 632, 631
415, 629, 630, 633, 632
416, 630, 310, 311, 633
417, 314, 631, 634, 313
418, 631, 632, 635, 634
419, 632, 633, 636, 635
420, 633, 311, 312, 636
421, 313, 634, 294,  52
422, 634, 635, 295, 294
423, 635, 636, 296, 295
424, 636, 312,  53, 296
425,  57, 316, 637, 319
426, 316,  55, 315, 637
427, 319, 637, 638, 318
428, 637, 315, 314, 638
429, 318, 638, 639, 317
430, 638, 314, 313, 639
431, 317, 639, 303,  54
432, 639, 313,  52, 303
433,  58, 320, 640, 328
434, 320, 321, 641, 640
435, 321, 322, 642, 641
436, 322,  59, 323, 642
437, 328, 640, 643, 327
438, 640, 641, 644, 643
439, 641, 642, 645, 644
440, 642, 323, 324, 645
441, 327, 643, 646, 326
442, 643, 644, 647, 646
443, 644, 645, 648, 647
444, 645, 324, 325, 648
445, 326, 646, 307,  55
446, 646, 647, 308, 307
447, 647, 648, 309, 308
448, 648, 325,  56, 309
449,  60, 329, 649, 332
450, 329,  58, 328, 649
451, 332, 649, 650, 331
452, 649, 328, 327, 650
453, 331, 650, 651, 330
454, 650, 327, 326, 651
455, 330, 651, 316,  57
456, 651, 326,  55, 316
457,  61, 333, 652, 341
458, 333, 334, 653, 652
459, 334, 335, 654, 653
460, 335,  62, 336, 654
461, 341, 652, 655, 340
462, 652, 653, 656, 655
463, 653, 654, 657, 656
464, 654, 336, 337, 657
465, 340, 655, 658, 339
466, 655, 656, 659, 658
467, 656, 657, 660, 659
468, 657, 337, 338, 660
469, 339, 658, 320,  58
470, 658, 659, 321, 320
471, 659, 660, 322, 321
472, 660, 338,  59, 322
473,  63, 342, 661, 345
474, 342,  61, 341, 661
475, 345, 661, 662, 344
476, 661, 341, 340, 662
477, 344, 662, 663, 343
478, 662, 340, 339, 663
479, 343, 663, 329,  60
480, 663, 339,  58, 329
481,  64, 346, 664, 354
482, 346, 347, 665, 664
483, 347, 348, 666, 665
484, 348,  65, 349, 666
485, 354, 664, 667, 353
486, 664, 665, 668, 667
487, 665, 666, 669, 668
488, 666, 349, 350, 669
489, 353, 667, 670, 352
490, 667, 668, 671, 670
491, 668, 669, 672, 671
492, 669, 350, 351, 672
493, 352, 670, 333,  61
494, 670, 671, 334, 333
495, 671, 672, 335, 334
496, 672, 351,  62, 335
497,  66, 355, 673, 358
498, 355,  64, 354, 673
499, 358, 673, 674, 357
500, 673, 354, 353, 674
501, 357, 674, 675, 356
502, 674, 353, 352, 675
503, 356, 675, 342,  63
504, 675, 352,  61, 342
505,  67, 359, 676, 367
506, 359, 360, 677, 676
507, 360, 361, 678, 677
508, 361,  68, 362, 678
509, 367, 676, 679, 366
510, 676, 677, 680, 679
511, 677, 678, 681, 680
512, 678, 362, 363, 681
513, 366, 679, 682, 365
514, 679, 680, 683, 682
515, 680, 681, 684, 683
516, 681, 363, 364, 684
517, 365, 682, 346,  64
518, 682, 683, 347, 346
519, 683, 684, 348, 347
520, 684, 364,  65, 348
521,  69, 368, 685, 371
522, 368,  67, 367, 685
523, 371, 685, 686, 370
524, 685, 367, 366, 686
525, 370, 686, 687, 369
526, 686, 366, 365, 687
527, 369, 687, 355,  66
528, 687, 365,  64, 355
529,  70, 372, 688, 380
530, 372, 373, 689, 688
531, 373, 374, 690, 689
532, 374,  71, 375, 690
533, 380, 688, 691, 379
534, 688, 689, 692, 691
535, 689, 690, 693, 692
536, 690, 375, 376, 693
537, 379, 691, 694, 378
538, 691, 692, 695, 694
539, 692, 693, 696, 695
540, 693, 376, 377, 696
541, 378, 694, 359,  67
542, 694, 695, 360, 359
543, 695, 696, 361, 360
544, 696, 377,  68, 361
545,  72, 381, 697, 384
546, 381,  70, 380, 697
547, 384, 697, 698, 383
548, 697, 380, 379, 698
549, 383, 698, 699, 382
550, 698, 379, 378, 699
551, 382, 699, 368,  69
552, 699, 378,  67, 368
553,  73, 385, 700, 393
554, 385, 386, 701, 700
555, 386, 387, 702, 701
556, 387,  74, 388, 702
557, 393, 700, 703, 392
558, 700, 701, 704, 703
559, 701, 702, 705, 704
560, 702, 388, 389, 705
561, 392, 703, 706, 391
562, 703, 704, 707, 706
563, 704, 705, 708, 707
564, 705, 389, 390, 708
565, 391, 706, 372,  70
566, 706, 707, 373, 372
567, 707, 708, 374, 373
568, 708, 390,  71, 374
569,  75, 394, 709, 397
570, 394,  73, 393, 709
571, 397, 709, 710, 396
572, 709, 393, 392, 710
573, 396, 710, 711, 395
574, 710, 392, 391, 711
575, 395, 711, 381,  72
576, 711, 391,  70, 381
577,  76, 398, 712, 406
578, 398, 399, 713, 712
579, 399, 400, 714, 713
580, 400,  77, 401, 714
581, 406, 712, 715, 405
582, 712, 713, 716, 715
583, 713, 714, 717, 716
584, 714, 401, 402, 717
585, 405, 715, 718, 404
586, 715, 716, 719, 718
587, 716, 717, 720, 719
588, 717, 402, 403, 720
589, 404, 718, 385,  73
590, 718, 719, 386, 385
591, 719, 720, 387, 386
592, 720, 403,  74, 387
593,  76, 407, 721, 398
594, 407, 408, 722, 721
595, 408, 409, 723, 722
596, 409,  78, 410, 723
597, 398, 721, 724, 399
598, 721, 722, 725, 724
599, 722, 723, 726, 725
600, 723, 410, 411, 726
601, 399, 724, 727, 400
602, 724, 725, 728, 727
603, 725, 726, 729, 728
604, 726, 411, 412, 729
605, 400, 727, 415,  77
606, 727, 728, 414, 415
607, 728, 729, 413, 414
608, 729, 412,  79, 413
609,  80, 416, 730, 419
610, 416,  76, 406, 730
611, 419, 730, 731, 418
612, 730, 406, 405, 731
613, 418, 731, 732, 417
614, 731, 405, 404, 732
615, 417, 732, 394,  75
616, 732, 404,  73, 394
617,  76, 416, 733, 407
618, 416,  80, 420, 733
619, 407, 733, 734, 408
620, 733, 420, 421, 734
621, 408, 734, 735, 409
622, 734, 421, 422, 735
623, 409, 735, 423,  78
624, 735, 422,  81, 423
*Nset, nset=section_all, generate
   1,  735,    1
*Elset, elset=section_all, generate
   1,  624,    1
*Nset, nset=set_body_heat_00
  73,  75,  76,  80, 394, 404, 405, 406, 416, 417, 418, 419, 730, 731, 732
*Elset, elset=set_body_heat_00, generate
 609,  616,    1
*Nset, nset=set_body_heat_01
  70,  72,  73,  75, 381, 391, 392, 393, 394, 395, 396, 397, 709, 710, 711
*Elset, elset=set_body_heat_01, generate
 569,  576,    1
*Nset, nset=set_body_heat_02
  67,  69,  70,  72, 368, 378, 379, 380, 381, 382, 383, 384, 697, 698, 699
*Elset, elset=set_body_heat_02, generate
 545,  552,    1
*Nset, nset=set_body_heat_03
  64,  66,  67,  69, 355, 365, 366, 367, 368, 369, 370, 371, 685, 686, 687
*Elset, elset=set_body_heat_03, generate
 521,  528,    1
*Nset, nset=set_body_heat_04
  61,  63,  64,  66, 342, 352, 353, 354, 355, 356, 357, 358, 673, 674, 675
*Elset, elset=set_body_heat_04, generate
 497,  504,    1
*Nset, nset=set_body_heat_05
  58,  60,  61,  63, 329, 339, 340, 341, 342, 343, 344, 345, 661, 662, 663
*Elset, elset=set_body_heat_05, generate
 473,  480,    1
*Nset, nset=set_body_heat_06
  55,  57,  58,  60, 316, 326, 327, 328, 329, 330, 331, 332, 649, 650, 651
*Elset, elset=set_body_heat_06, generate
 449,  456,    1
*Nset, nset=set_body_heat_07
  52,  54,  55,  57, 303, 313, 314, 315, 316, 317, 318, 319, 637, 638, 639
*Elset, elset=set_body_heat_07, generate
 425,  432,    1
*Nset, nset=set_body_heat_08
  49,  51,  52,  54, 290, 300, 301, 302, 303, 304, 305, 306, 625, 626, 627
*Elset, elset=set_body_heat_08, generate
 401,  408,    1
*Nset, nset=set_body_heat_09
  46,  48,  49,  51, 277, 287, 288, 289, 290, 291, 292, 293, 613, 614, 615
*Elset, elset=set_body_heat_09, generate
 377,  384,    1
*Nset, nset=set_body_heat_10
  43,  45,  46,  48, 264, 274, 275, 276, 277, 278, 279, 280, 601, 602, 603
*Elset, elset=set_body_heat_10, generate
 353,  360,    1
*Nset, nset=set_body_heat_11
  40,  42,  43,  45, 251, 261, 262, 263, 264, 265, 266, 267, 589, 590, 591
*Elset, elset=set_body_heat_11, generate
 329,  336,    1
*Nset, nset=set_body_heat_12
  37,  39,  40,  42, 238, 248, 249, 250, 251, 252, 253, 254, 577, 578, 579
*Elset, elset=set_body_heat_12, generate
 305,  312,    1
*Nset, nset=set_body_heat_13
  34,  36,  37,  39, 225, 235, 236, 237, 238, 239, 240, 241, 565, 566, 567
*Elset, elset=set_body_heat_13, generate
 281,  288,    1
*Nset, nset=set_body_heat_14
  31,  33,  34,  36, 212, 222, 223, 224, 225, 226, 227, 228, 553, 554, 555
*Elset, elset=set_body_heat_14, generate
 257,  264,    1
*Nset, nset=set_body_heat_15
  28,  30,  31,  33, 199, 209, 210, 211, 212, 213, 214, 215, 541, 542, 543
*Elset, elset=set_body_heat_15, generate
 233,  240,    1
*Nset, nset=set_body_heat_16
  25,  27,  28,  30, 186, 196, 197, 198, 199, 200, 201, 202, 529, 530, 531
*Elset, elset=set_body_heat_16, generate
 209,  216,    1
*Nset, nset=set_body_heat_17
  22,  24,  25,  27, 173, 183, 184, 185, 186, 187, 188, 189, 517, 518, 519
*Elset, elset=set_body_heat_17, generate
 185,  192,    1
*Nset, nset=set_body_heat_18
  19,  21,  22,  24, 160, 170, 171, 172, 173, 174, 175, 176, 505, 506, 507
*Elset, elset=set_body_heat_18, generate
 161,  168,    1
*Nset, nset=set_body_heat_19
  16,  18,  19,  21, 147, 157, 158, 159, 160, 161, 162, 163, 493, 494, 495
*Elset, elset=set_body_heat_19, generate
 137,  144,    1
*Nset, nset=set_body_heat_20
  13,  15,  16,  18, 134, 144, 145, 146, 147, 148, 149, 150, 481, 482, 483
*Elset, elset=set_body_heat_20, generate
 113,  120,    1
*Nset, nset=set_body_heat_21
  10,  12,  13,  15, 121, 131, 132, 133, 134, 135, 136, 137, 469, 470, 471
*Elset, elset=set_body_heat_21, generate
 89,  96,   1
*Nset, nset=set_body_heat_22
   7,   9,  10,  12, 108, 112, 113, 114, 121, 122, 123, 124, 457, 458, 459
*Elset, elset=set_body_heat_22, generate
 65,  72,   1
*Nset, nset=set_body_heat_23
   1,   5,   7,   9,  94, 105, 106, 107, 108, 109, 110, 111, 445, 446, 447
*Elset, elset=set_body_heat_23, generate
 41,  48,   1
*Elset, elset=_surf_external_all_S2, internal
   4,   8,  12,  16,  28,  32,  36,  40,  76,  80,  84,  88, 100, 104, 108, 112
 124, 128, 132, 136, 148, 152, 156, 160, 172, 176, 180, 184, 196, 200, 204, 208
 220, 224, 228, 232, 244, 248, 252, 256, 268, 272, 276, 280, 292, 296, 300, 304
 316, 320, 324, 328, 340, 344, 348, 352, 364, 368, 372, 376, 388, 392, 396, 400
 412, 416, 420, 424, 436, 440, 444, 448, 460, 464, 468, 472, 484, 488, 492, 496
 508, 512, 516, 520, 532, 536, 540, 544, 556, 560, 564, 568, 580, 584, 588, 592
 596, 600, 604, 608, 618, 620, 622, 624
*Elset, elset=_surf_external_all_S3, internal
  13,  14,  15,  16,  23,  24, 605, 606, 607, 608, 623, 624
*Elset, elset=_surf_external_all_S4, internal
  17,  19,  21,  23,  41,  43,  45,  47,  49,  53,  57,  61,  65,  67,  69,  71
  89,  91,  93,  95, 113, 115, 117, 119, 137, 139, 141, 143, 161, 163, 165, 167
 185, 187, 189, 191, 209, 211, 213, 215, 233, 235, 237, 239, 257, 259, 261, 263
 281, 283, 285, 287, 305, 307, 309, 311, 329, 331, 333, 335, 353, 355, 357, 359
 377, 379, 381, 383, 401, 403, 405, 407, 425, 427, 429, 431, 449, 451, 453, 455
 473, 475, 477, 479, 497, 499, 501, 503, 521, 523, 525, 527, 545, 547, 549, 551
 569, 571, 573, 575, 609, 611, 613, 615
*Surface, type=ELEMENT, name=surf_external_all
_surf_external_all_S2, S2
_surf_external_all_S3, S3
_surf_external_all_S4, S4
** Section: property_section_all
*Solid Section, elset=section_all, material="SS316L For AM"
,
*End Part
**  
**
** ASSEMBLY
**
*Assembly, name=Assembly
**  
*Instance, name=inst_plate, part=part_plate
*End Instance
**  
*Nset, nset=_PickedSet4, internal, instance=inst_plate
 79,
*Nset, nset=_PickedSet5, internal, instance=inst_plate
 3,
*End Assembly
** 
** MATERIALS
** 
** Material property of AISI Type 316L Steel in Additive Manufacturing
** 
*Material, name="SS316L For AM"
*Conductivity
  14.,  20.
  16., 100.
  17., 200.
  19., 400.
 21.5, 600.
  24., 800.
 26.5,1000.
  29.,1200.
  31.,1375.
  29.,1400.
  29.,1723.
  29.,3000.
*Density
7980.,  20.
7950., 100.
7920., 200.
7860., 400.
7800., 600.
7740., 800.
7680.,1000.
7620.,1200.
7580.,1375.
7450.,1400.
7300.,1723.
7200.,3000.
*Elastic
 2.08e+11,  0.3,  20.
 2.02e+11,  0.3, 100.
 1.94e+11,  0.3, 200.
 1.78e+11,  0.3, 400.
 1.62e+11,  0.3, 600.
 1.42e+11,  0.3, 800.
 1.12e+11,  0.3,1000.
  7.5e+10,  0.3,1200.
  1.5e+10,  0.3,1375.
    1e+08,  0.3,1400.
    1e+07,  0.3,1723.
    1e+06,  0.3,3000.
*Expansion
 1.48e-05,  20.
  1.6e-05, 100.
 1.68e-05, 200.
 1.78e-05, 400.
 1.87e-05, 600.
 1.96e-05, 800.
 2.02e-05,1000.
 2.08e-05,1200.
 2.15e-05,1375.
  2.2e-05,1400.
  2.2e-05,1723.
  2.2e-05,3000.
*Latent Heat
256000.,1375.,1400.
*Plastic
 5.8e+08,   0.,  20.
 5.3e+08,   0., 100.
 4.8e+08,   0., 200.
 4.1e+08,   0., 400.
 3.5e+08,   0., 600.
 2.1e+08,   0., 800.
   9e+07,   0.,1000.
   3e+07,   0.,1200.
   2e+06,   0.,1375.
  10000.,   0.,1400.
   5000.,   0.,1723.
   1000.,   0.,3000.
*Specific Heat
450.,  20.
480., 100.
505., 200.
540., 400.
570., 600.
600., 800.
635.,1000.
670.,1200.
700.,1375.
750.,1400.
760.,1723.
800.,3000.
** 
** PHYSICAL CONSTANTS
** 
*Physical Constants, absolute zero=-273.15, stefan boltzmann=5.67e-08
** 
** BOUNDARY CONDITIONS
** 
** Name: bc_point_xy Type: Displacement/Rotation
*Boundary
_PickedSet4, 1, 1
_PickedSet4, 2, 2
** Name: bc_point_y Type: Displacement/Rotation
*Boundary
_PickedSet5, 2, 2
** 
** PREDEFINED FIELDS
** 
** Name: predefined_temperature_all   Type: Temperature
*Initial Conditions, type=TEMPERATURE
inst_plate.section_all, 20.
** ----------------------------------------------------------------
** 
** STEP: step_scan_00
** 
*Step, name=step_scan_00, nlgeom=YES, inc=999999
*Coupled Temperature-displacement, creep=none, deltmx=400.
0.001, 0.2, 2e-30, 0.01
** 
** LOADS
** 
** Name: load_body_hflux_00   Type: Body heat flux
*Dflux
inst_plate.set_body_heat_00, BF, 8e+10
** 
** INTERACTIONS
** 
** Interaction: film_external_cooling
*Sfilm
inst_plate.surf_external_all, F, 20., 46.5
** Interaction: rad_external_ambient
*Sradiate
inst_plate.surf_external_all, R, 20., 0.285
** 
** OUTPUT REQUESTS
** 
*Restart, write, frequency=0
** 
** FIELD OUTPUT: F-Output-1
** 
*Output, field
*Node Output
NT, RF, U
*Element Output, directions=YES
HFL, PEEQ, S
** 
** HISTORY OUTPUT: H-Output-1
** 
*Output, history
*Energy Output
ALLAE, ALLIE, ALLKE, ALLPD, ALLSD, ALLSE, ALLWK, ETOTAL
*End Step
** ----------------------------------------------------------------
** 
** STEP: step_cool_00
** 
*Step, name=step_cool_00, nlgeom=YES, inc=999999
*Coupled Temperature-displacement, creep=none, deltmx=400.
0.01, 3.4, 3.4e-30, 0.2
** 
** LOADS
** 
** Name: load_body_hflux_00   Type: Body heat flux
*Dflux, op=NEW
** 
** OUTPUT REQUESTS
** 
*Restart, write, frequency=0
** 
** FIELD OUTPUT: F-Output-1
** 
*Output, field
*Node Output
NT, RF, U
*Element Output, directions=YES
HFL, PEEQ, S
** 
** HISTORY OUTPUT: H-Output-1
** 
*Output, history
*Energy Output
ALLAE, ALLIE, ALLKE, ALLPD, ALLSD, ALLSE, ALLWK, ETOTAL
*End Step
** ----------------------------------------------------------------
** 
** STEP: step_scan_01
** 
*Step, name=step_scan_01, nlgeom=YES, inc=999999
*Coupled Temperature-displacement, creep=none, deltmx=400.
0.001, 0.2, 2e-30, 0.01
** 
** LOADS
** 
** Name: load_body_hflux_01   Type: Body heat flux
*Dflux
inst_plate.set_body_heat_11, BF, 8e+10
** 
** OUTPUT REQUESTS
** 
*Restart, write, frequency=0
** 
** FIELD OUTPUT: F-Output-1
** 
*Output, field
*Node Output
NT, RF, U
*Element Output, directions=YES
HFL, PEEQ, S
** 
** HISTORY OUTPUT: H-Output-1
** 
*Output, history
*Energy Output
ALLAE, ALLIE, ALLKE, ALLPD, ALLSD, ALLSE, ALLWK, ETOTAL
*End Step
** ----------------------------------------------------------------
** 
** STEP: step_cool_01
** 
*Step, name=step_cool_01, nlgeom=YES, inc=999999
*Coupled Temperature-displacement, creep=none, deltmx=400.
0.01, 3.4, 3.4e-30, 0.2
** 
** LOADS
** 
** Name: load_body_hflux_01   Type: Body heat flux
*Dflux, op=NEW
** 
** OUTPUT REQUESTS
** 
*Restart, write, frequency=0
** 
** FIELD OUTPUT: F-Output-1
** 
*Output, field
*Node Output
NT, RF, U
*Element Output, directions=YES
HFL, PEEQ, S
** 
** HISTORY OUTPUT: H-Output-1
** 
*Output, history
*Energy Output
ALLAE, ALLIE, ALLKE, ALLPD, ALLSD, ALLSE, ALLWK, ETOTAL
*End Step
** ----------------------------------------------------------------
** 
** STEP: step_scan_02
** 
*Step, name=step_scan_02, nlgeom=YES, inc=999999
*Coupled Temperature-displacement, creep=none, deltmx=400.
0.001, 0.2, 2e-30, 0.01
** 
** LOADS
** 
** Name: load_body_hflux_02   Type: Body heat flux
*Dflux
inst_plate.set_body_heat_22, BF, 8e+10
** 
** OUTPUT REQUESTS
** 
*Restart, write, frequency=0
** 
** FIELD OUTPUT: F-Output-1
** 
*Output, field
*Node Output
NT, RF, U
*Element Output, directions=YES
HFL, PEEQ, S
** 
** HISTORY OUTPUT: H-Output-1
** 
*Output, history
*Energy Output
ALLAE, ALLIE, ALLKE, ALLPD, ALLSD, ALLSE, ALLWK, ETOTAL
*End Step
** ----------------------------------------------------------------
** 
** STEP: step_cool_02
** 
*Step, name=step_cool_02, nlgeom=YES, inc=999999
*Coupled Temperature-displacement, creep=none, deltmx=400.
0.01, 3.4, 3.4e-30, 0.2
** 
** LOADS
** 
** Name: load_body_hflux_02   Type: Body heat flux
*Dflux, op=NEW
** 
** OUTPUT REQUESTS
** 
*Restart, write, frequency=0
** 
** FIELD OUTPUT: F-Output-1
** 
*Output, field
*Node Output
NT, RF, U
*Element Output, directions=YES
HFL, PEEQ, S
** 
** HISTORY OUTPUT: H-Output-1
** 
*Output, history
*Energy Output
ALLAE, ALLIE, ALLKE, ALLPD, ALLSD, ALLSE, ALLWK, ETOTAL
*End Step
** ----------------------------------------------------------------
** 
** STEP: step_scan_03
** 
*Step, name=step_scan_03, nlgeom=YES, inc=999999
*Coupled Temperature-displacement, creep=none, deltmx=400.
0.001, 0.2, 2e-30, 0.01
** 
** LOADS
** 
** Name: load_body_hflux_03   Type: Body heat flux
*Dflux
inst_plate.set_body_heat_09, BF, 8e+10
** 
** OUTPUT REQUESTS
** 
*Restart, write, frequency=0
** 
** FIELD OUTPUT: F-Output-1
** 
*Output, field
*Node Output
NT, RF, U
*Element Output, directions=YES
HFL, PEEQ, S
** 
** HISTORY OUTPUT: H-Output-1
** 
*Output, history
*Energy Output
ALLAE, ALLIE, ALLKE, ALLPD, ALLSD, ALLSE, ALLWK, ETOTAL
*End Step
** ----------------------------------------------------------------
** 
** STEP: step_cool_03
** 
*Step, name=step_cool_03, nlgeom=YES, inc=999999
*Coupled Temperature-displacement, creep=none, deltmx=400.
0.01, 3.4, 3.4e-30, 0.2
** 
** LOADS
** 
** Name: load_body_hflux_03   Type: Body heat flux
*Dflux, op=NEW
** 
** OUTPUT REQUESTS
** 
*Restart, write, frequency=0
** 
** FIELD OUTPUT: F-Output-1
** 
*Output, field
*Node Output
NT, RF, U
*Element Output, directions=YES
HFL, PEEQ, S
** 
** HISTORY OUTPUT: H-Output-1
** 
*Output, history
*Energy Output
ALLAE, ALLIE, ALLKE, ALLPD, ALLSD, ALLSE, ALLWK, ETOTAL
*End Step
** ----------------------------------------------------------------
** 
** STEP: step_scan_04
** 
*Step, name=step_scan_04, nlgeom=YES, inc=999999
*Coupled Temperature-displacement, creep=none, deltmx=400.
0.001, 0.2, 2e-30, 0.01
** 
** LOADS
** 
** Name: load_body_hflux_04   Type: Body heat flux
*Dflux
inst_plate.set_body_heat_20, BF, 8e+10
** 
** OUTPUT REQUESTS
** 
*Restart, write, frequency=0
** 
** FIELD OUTPUT: F-Output-1
** 
*Output, field
*Node Output
NT, RF, U
*Element Output, directions=YES
HFL, PEEQ, S
** 
** HISTORY OUTPUT: H-Output-1
** 
*Output, history
*Energy Output
ALLAE, ALLIE, ALLKE, ALLPD, ALLSD, ALLSE, ALLWK, ETOTAL
*End Step
** ----------------------------------------------------------------
** 
** STEP: step_cool_04
** 
*Step, name=step_cool_04, nlgeom=YES, inc=999999
*Coupled Temperature-displacement, creep=none, deltmx=400.
0.01, 3.4, 3.4e-30, 0.2
** 
** LOADS
** 
** Name: load_body_hflux_04   Type: Body heat flux
*Dflux, op=NEW
** 
** OUTPUT REQUESTS
** 
*Restart, write, frequency=0
** 
** FIELD OUTPUT: F-Output-1
** 
*Output, field
*Node Output
NT, RF, U
*Element Output, directions=YES
HFL, PEEQ, S
** 
** HISTORY OUTPUT: H-Output-1
** 
*Output, history
*Energy Output
ALLAE, ALLIE, ALLKE, ALLPD, ALLSD, ALLSE, ALLWK, ETOTAL
*End Step
** ----------------------------------------------------------------
** 
** STEP: step_scan_05
** 
*Step, name=step_scan_05, nlgeom=YES, inc=999999
*Coupled Temperature-displacement, creep=none, deltmx=400.
0.001, 0.2, 2e-30, 0.01
** 
** LOADS
** 
** Name: load_body_hflux_05   Type: Body heat flux
*Dflux
inst_plate.set_body_heat_07, BF, 8e+10
** 
** OUTPUT REQUESTS
** 
*Restart, write, frequency=0
** 
** FIELD OUTPUT: F-Output-1
** 
*Output, field
*Node Output
NT, RF, U
*Element Output, directions=YES
HFL, PEEQ, S
** 
** HISTORY OUTPUT: H-Output-1
** 
*Output, history
*Energy Output
ALLAE, ALLIE, ALLKE, ALLPD, ALLSD, ALLSE, ALLWK, ETOTAL
*End Step
** ----------------------------------------------------------------
** 
** STEP: step_cool_05
** 
*Step, name=step_cool_05, nlgeom=YES, inc=999999
*Coupled Temperature-displacement, creep=none, deltmx=400.
0.01, 3.4, 3.4e-30, 0.2
** 
** LOADS
** 
** Name: load_body_hflux_05   Type: Body heat flux
*Dflux, op=NEW
** 
** OUTPUT REQUESTS
** 
*Restart, write, frequency=0
** 
** FIELD OUTPUT: F-Output-1
** 
*Output, field
*Node Output
NT, RF, U
*Element Output, directions=YES
HFL, PEEQ, S
** 
** HISTORY OUTPUT: H-Output-1
** 
*Output, history
*Energy Output
ALLAE, ALLIE, ALLKE, ALLPD, ALLSD, ALLSE, ALLWK, ETOTAL
*End Step
** ----------------------------------------------------------------
** 
** STEP: step_scan_06
** 
*Step, name=step_scan_06, nlgeom=YES, inc=999999
*Coupled Temperature-displacement, creep=none, deltmx=400.
0.001, 0.2, 2e-30, 0.01
** 
** LOADS
** 
** Name: load_body_hflux_06   Type: Body heat flux
*Dflux
inst_plate.set_body_heat_18, BF, 8e+10
** 
** OUTPUT REQUESTS
** 
*Restart, write, frequency=0
** 
** FIELD OUTPUT: F-Output-1
** 
*Output, field
*Node Output
NT, RF, U
*Element Output, directions=YES
HFL, PEEQ, S
** 
** HISTORY OUTPUT: H-Output-1
** 
*Output, history
*Energy Output
ALLAE, ALLIE, ALLKE, ALLPD, ALLSD, ALLSE, ALLWK, ETOTAL
*End Step
** ----------------------------------------------------------------
** 
** STEP: step_cool_06
** 
*Step, name=step_cool_06, nlgeom=YES, inc=999999
*Coupled Temperature-displacement, creep=none, deltmx=400.
0.01, 3.4, 3.4e-30, 0.2
** 
** LOADS
** 
** Name: load_body_hflux_06   Type: Body heat flux
*Dflux, op=NEW
** 
** OUTPUT REQUESTS
** 
*Restart, write, frequency=0
** 
** FIELD OUTPUT: F-Output-1
** 
*Output, field
*Node Output
NT, RF, U
*Element Output, directions=YES
HFL, PEEQ, S
** 
** HISTORY OUTPUT: H-Output-1
** 
*Output, history
*Energy Output
ALLAE, ALLIE, ALLKE, ALLPD, ALLSD, ALLSE, ALLWK, ETOTAL
*End Step
** ----------------------------------------------------------------
** 
** STEP: step_scan_07
** 
*Step, name=step_scan_07, nlgeom=YES, inc=999999
*Coupled Temperature-displacement, creep=none, deltmx=400.
0.001, 0.2, 2e-30, 0.01
** 
** LOADS
** 
** Name: load_body_hflux_07   Type: Body heat flux
*Dflux
inst_plate.set_body_heat_05, BF, 8e+10
** 
** OUTPUT REQUESTS
** 
*Restart, write, frequency=0
** 
** FIELD OUTPUT: F-Output-1
** 
*Output, field
*Node Output
NT, RF, U
*Element Output, directions=YES
HFL, PEEQ, S
** 
** HISTORY OUTPUT: H-Output-1
** 
*Output, history
*Energy Output
ALLAE, ALLIE, ALLKE, ALLPD, ALLSD, ALLSE, ALLWK, ETOTAL
*End Step
** ----------------------------------------------------------------
** 
** STEP: step_cool_07
** 
*Step, name=step_cool_07, nlgeom=YES, inc=999999
*Coupled Temperature-displacement, creep=none, deltmx=400.
0.01, 3.4, 3.4e-30, 0.2
** 
** LOADS
** 
** Name: load_body_hflux_07   Type: Body heat flux
*Dflux, op=NEW
** 
** OUTPUT REQUESTS
** 
*Restart, write, frequency=0
** 
** FIELD OUTPUT: F-Output-1
** 
*Output, field
*Node Output
NT, RF, U
*Element Output, directions=YES
HFL, PEEQ, S
** 
** HISTORY OUTPUT: H-Output-1
** 
*Output, history
*Energy Output
ALLAE, ALLIE, ALLKE, ALLPD, ALLSD, ALLSE, ALLWK, ETOTAL
*End Step
** ----------------------------------------------------------------
** 
** STEP: step_scan_08
** 
*Step, name=step_scan_08, nlgeom=YES, inc=999999
*Coupled Temperature-displacement, creep=none, deltmx=400.
0.001, 0.2, 2e-30, 0.01
** 
** LOADS
** 
** Name: load_body_hflux_08   Type: Body heat flux
*Dflux
inst_plate.set_body_heat_16, BF, 8e+10
** 
** OUTPUT REQUESTS
** 
*Restart, write, frequency=0
** 
** FIELD OUTPUT: F-Output-1
** 
*Output, field
*Node Output
NT, RF, U
*Element Output, directions=YES
HFL, PEEQ, S
** 
** HISTORY OUTPUT: H-Output-1
** 
*Output, history
*Energy Output
ALLAE, ALLIE, ALLKE, ALLPD, ALLSD, ALLSE, ALLWK, ETOTAL
*End Step
** ----------------------------------------------------------------
** 
** STEP: step_cool_08
** 
*Step, name=step_cool_08, nlgeom=YES, inc=999999
*Coupled Temperature-displacement, creep=none, deltmx=400.
0.01, 3.4, 3.4e-30, 0.2
** 
** LOADS
** 
** Name: load_body_hflux_08   Type: Body heat flux
*Dflux, op=NEW
** 
** OUTPUT REQUESTS
** 
*Restart, write, frequency=0
** 
** FIELD OUTPUT: F-Output-1
** 
*Output, field
*Node Output
NT, RF, U
*Element Output, directions=YES
HFL, PEEQ, S
** 
** HISTORY OUTPUT: H-Output-1
** 
*Output, history
*Energy Output
ALLAE, ALLIE, ALLKE, ALLPD, ALLSD, ALLSE, ALLWK, ETOTAL
*End Step
** ----------------------------------------------------------------
** 
** STEP: step_scan_09
** 
*Step, name=step_scan_09, nlgeom=YES, inc=999999
*Coupled Temperature-displacement, creep=none, deltmx=400.
0.001, 0.2, 2e-30, 0.01
** 
** LOADS
** 
** Name: load_body_hflux_09   Type: Body heat flux
*Dflux
inst_plate.set_body_heat_03, BF, 8e+10
** 
** OUTPUT REQUESTS
** 
*Restart, write, frequency=0
** 
** FIELD OUTPUT: F-Output-1
** 
*Output, field
*Node Output
NT, RF, U
*Element Output, directions=YES
HFL, PEEQ, S
** 
** HISTORY OUTPUT: H-Output-1
** 
*Output, history
*Energy Output
ALLAE, ALLIE, ALLKE, ALLPD, ALLSD, ALLSE, ALLWK, ETOTAL
*End Step
** ----------------------------------------------------------------
** 
** STEP: step_cool_09
** 
*Step, name=step_cool_09, nlgeom=YES, inc=999999
*Coupled Temperature-displacement, creep=none, deltmx=400.
0.01, 3.4, 3.4e-30, 0.2
** 
** LOADS
** 
** Name: load_body_hflux_09   Type: Body heat flux
*Dflux, op=NEW
** 
** OUTPUT REQUESTS
** 
*Restart, write, frequency=0
** 
** FIELD OUTPUT: F-Output-1
** 
*Output, field
*Node Output
NT, RF, U
*Element Output, directions=YES
HFL, PEEQ, S
** 
** HISTORY OUTPUT: H-Output-1
** 
*Output, history
*Energy Output
ALLAE, ALLIE, ALLKE, ALLPD, ALLSD, ALLSE, ALLWK, ETOTAL
*End Step
** ----------------------------------------------------------------
** 
** STEP: step_scan_10
** 
*Step, name=step_scan_10, nlgeom=YES, inc=999999
*Coupled Temperature-displacement, creep=none, deltmx=400.
0.001, 0.2, 2e-30, 0.01
** 
** LOADS
** 
** Name: load_body_hflux_10   Type: Body heat flux
*Dflux
inst_plate.set_body_heat_14, BF, 8e+10
** 
** OUTPUT REQUESTS
** 
*Restart, write, frequency=0
** 
** FIELD OUTPUT: F-Output-1
** 
*Output, field
*Node Output
NT, RF, U
*Element Output, directions=YES
HFL, PEEQ, S
** 
** HISTORY OUTPUT: H-Output-1
** 
*Output, history
*Energy Output
ALLAE, ALLIE, ALLKE, ALLPD, ALLSD, ALLSE, ALLWK, ETOTAL
*End Step
** ----------------------------------------------------------------
** 
** STEP: step_cool_10
** 
*Step, name=step_cool_10, nlgeom=YES, inc=999999
*Coupled Temperature-displacement, creep=none, deltmx=400.
0.01, 3.4, 3.4e-30, 0.2
** 
** LOADS
** 
** Name: load_body_hflux_10   Type: Body heat flux
*Dflux, op=NEW
** 
** OUTPUT REQUESTS
** 
*Restart, write, frequency=0
** 
** FIELD OUTPUT: F-Output-1
** 
*Output, field
*Node Output
NT, RF, U
*Element Output, directions=YES
HFL, PEEQ, S
** 
** HISTORY OUTPUT: H-Output-1
** 
*Output, history
*Energy Output
ALLAE, ALLIE, ALLKE, ALLPD, ALLSD, ALLSE, ALLWK, ETOTAL
*End Step
** ----------------------------------------------------------------
** 
** STEP: step_scan_11
** 
*Step, name=step_scan_11, nlgeom=YES, inc=999999
*Coupled Temperature-displacement, creep=none, deltmx=400.
0.001, 0.2, 2e-30, 0.01
** 
** LOADS
** 
** Name: load_body_hflux_11   Type: Body heat flux
*Dflux
inst_plate.set_body_heat_01, BF, 8e+10
** 
** OUTPUT REQUESTS
** 
*Restart, write, frequency=0
** 
** FIELD OUTPUT: F-Output-1
** 
*Output, field
*Node Output
NT, RF, U
*Element Output, directions=YES
HFL, PEEQ, S
** 
** HISTORY OUTPUT: H-Output-1
** 
*Output, history
*Energy Output
ALLAE, ALLIE, ALLKE, ALLPD, ALLSD, ALLSE, ALLWK, ETOTAL
*End Step
** ----------------------------------------------------------------
** 
** STEP: step_cool_11
** 
*Step, name=step_cool_11, nlgeom=YES, inc=999999
*Coupled Temperature-displacement, creep=none, deltmx=400.
0.01, 3.4, 3.4e-30, 0.2
** 
** LOADS
** 
** Name: load_body_hflux_11   Type: Body heat flux
*Dflux, op=NEW
** 
** OUTPUT REQUESTS
** 
*Restart, write, frequency=0
** 
** FIELD OUTPUT: F-Output-1
** 
*Output, field
*Node Output
NT, RF, U
*Element Output, directions=YES
HFL, PEEQ, S
** 
** HISTORY OUTPUT: H-Output-1
** 
*Output, history
*Energy Output
ALLAE, ALLIE, ALLKE, ALLPD, ALLSD, ALLSE, ALLWK, ETOTAL
*End Step
** ----------------------------------------------------------------
** 
** STEP: step_scan_12
** 
*Step, name=step_scan_12, nlgeom=YES, inc=999999
*Coupled Temperature-displacement, creep=none, deltmx=400.
0.001, 0.2, 2e-30, 0.01
** 
** LOADS
** 
** Name: load_body_hflux_12   Type: Body heat flux
*Dflux
inst_plate.set_body_heat_12, BF, 8e+10
** 
** OUTPUT REQUESTS
** 
*Restart, write, frequency=0
** 
** FIELD OUTPUT: F-Output-1
** 
*Output, field
*Node Output
NT, RF, U
*Element Output, directions=YES
HFL, PEEQ, S
** 
** HISTORY OUTPUT: H-Output-1
** 
*Output, history
*Energy Output
ALLAE, ALLIE, ALLKE, ALLPD, ALLSD, ALLSE, ALLWK, ETOTAL
*End Step
** ----------------------------------------------------------------
** 
** STEP: step_cool_12
** 
*Step, name=step_cool_12, nlgeom=YES, inc=999999
*Coupled Temperature-displacement, creep=none, deltmx=400.
0.01, 3.4, 3.4e-30, 0.2
** 
** LOADS
** 
** Name: load_body_hflux_12   Type: Body heat flux
*Dflux, op=NEW
** 
** OUTPUT REQUESTS
** 
*Restart, write, frequency=0
** 
** FIELD OUTPUT: F-Output-1
** 
*Output, field
*Node Output
NT, RF, U
*Element Output, directions=YES
HFL, PEEQ, S
** 
** HISTORY OUTPUT: H-Output-1
** 
*Output, history
*Energy Output
ALLAE, ALLIE, ALLKE, ALLPD, ALLSD, ALLSE, ALLWK, ETOTAL
*End Step
** ----------------------------------------------------------------
** 
** STEP: step_scan_13
** 
*Step, name=step_scan_13, nlgeom=YES, inc=999999
*Coupled Temperature-displacement, creep=none, deltmx=400.
0.001, 0.2, 2e-30, 0.01
** 
** LOADS
** 
** Name: load_body_hflux_13   Type: Body heat flux
*Dflux
inst_plate.set_body_heat_23, BF, 8e+10
** 
** OUTPUT REQUESTS
** 
*Restart, write, frequency=0
** 
** FIELD OUTPUT: F-Output-1
** 
*Output, field
*Node Output
NT, RF, U
*Element Output, directions=YES
HFL, PEEQ, S
** 
** HISTORY OUTPUT: H-Output-1
** 
*Output, history
*Energy Output
ALLAE, ALLIE, ALLKE, ALLPD, ALLSD, ALLSE, ALLWK, ETOTAL
*End Step
** ----------------------------------------------------------------
** 
** STEP: step_cool_13
** 
*Step, name=step_cool_13, nlgeom=YES, inc=999999
*Coupled Temperature-displacement, creep=none, deltmx=400.
0.01, 3.4, 3.4e-30, 0.2
** 
** LOADS
** 
** Name: load_body_hflux_13   Type: Body heat flux
*Dflux, op=NEW
** 
** OUTPUT REQUESTS
** 
*Restart, write, frequency=0
** 
** FIELD OUTPUT: F-Output-1
** 
*Output, field
*Node Output
NT, RF, U
*Element Output, directions=YES
HFL, PEEQ, S
** 
** HISTORY OUTPUT: H-Output-1
** 
*Output, history
*Energy Output
ALLAE, ALLIE, ALLKE, ALLPD, ALLSD, ALLSE, ALLWK, ETOTAL
*End Step
** ----------------------------------------------------------------
** 
** STEP: step_scan_14
** 
*Step, name=step_scan_14, nlgeom=YES, inc=999999
*Coupled Temperature-displacement, creep=none, deltmx=400.
0.001, 0.2, 2e-30, 0.01
** 
** LOADS
** 
** Name: load_body_hflux_14   Type: Body heat flux
*Dflux
inst_plate.set_body_heat_10, BF, 8e+10
** 
** OUTPUT REQUESTS
** 
*Restart, write, frequency=0
** 
** FIELD OUTPUT: F-Output-1
** 
*Output, field
*Node Output
NT, RF, U
*Element Output, directions=YES
HFL, PEEQ, S
** 
** HISTORY OUTPUT: H-Output-1
** 
*Output, history
*Energy Output
ALLAE, ALLIE, ALLKE, ALLPD, ALLSD, ALLSE, ALLWK, ETOTAL
*End Step
** ----------------------------------------------------------------
** 
** STEP: step_cool_14
** 
*Step, name=step_cool_14, nlgeom=YES, inc=999999
*Coupled Temperature-displacement, creep=none, deltmx=400.
0.01, 3.4, 3.4e-30, 0.2
** 
** LOADS
** 
** Name: load_body_hflux_14   Type: Body heat flux
*Dflux, op=NEW
** 
** OUTPUT REQUESTS
** 
*Restart, write, frequency=0
** 
** FIELD OUTPUT: F-Output-1
** 
*Output, field
*Node Output
NT, RF, U
*Element Output, directions=YES
HFL, PEEQ, S
** 
** HISTORY OUTPUT: H-Output-1
** 
*Output, history
*Energy Output
ALLAE, ALLIE, ALLKE, ALLPD, ALLSD, ALLSE, ALLWK, ETOTAL
*End Step
** ----------------------------------------------------------------
** 
** STEP: step_scan_15
** 
*Step, name=step_scan_15, nlgeom=YES, inc=999999
*Coupled Temperature-displacement, creep=none, deltmx=400.
0.001, 0.2, 2e-30, 0.01
** 
** LOADS
** 
** Name: load_body_hflux_15   Type: Body heat flux
*Dflux
inst_plate.set_body_heat_21, BF, 8e+10
** 
** OUTPUT REQUESTS
** 
*Restart, write, frequency=0
** 
** FIELD OUTPUT: F-Output-1
** 
*Output, field
*Node Output
NT, RF, U
*Element Output, directions=YES
HFL, PEEQ, S
** 
** HISTORY OUTPUT: H-Output-1
** 
*Output, history
*Energy Output
ALLAE, ALLIE, ALLKE, ALLPD, ALLSD, ALLSE, ALLWK, ETOTAL
*End Step
** ----------------------------------------------------------------
** 
** STEP: step_cool_15
** 
*Step, name=step_cool_15, nlgeom=YES, inc=999999
*Coupled Temperature-displacement, creep=none, deltmx=400.
0.01, 3.4, 3.4e-30, 0.2
** 
** LOADS
** 
** Name: load_body_hflux_15   Type: Body heat flux
*Dflux, op=NEW
** 
** OUTPUT REQUESTS
** 
*Restart, write, frequency=0
** 
** FIELD OUTPUT: F-Output-1
** 
*Output, field
*Node Output
NT, RF, U
*Element Output, directions=YES
HFL, PEEQ, S
** 
** HISTORY OUTPUT: H-Output-1
** 
*Output, history
*Energy Output
ALLAE, ALLIE, ALLKE, ALLPD, ALLSD, ALLSE, ALLWK, ETOTAL
*End Step
** ----------------------------------------------------------------
** 
** STEP: step_scan_16
** 
*Step, name=step_scan_16, nlgeom=YES, inc=999999
*Coupled Temperature-displacement, creep=none, deltmx=400.
0.001, 0.2, 2e-30, 0.01
** 
** LOADS
** 
** Name: load_body_hflux_16   Type: Body heat flux
*Dflux
inst_plate.set_body_heat_08, BF, 8e+10
** 
** OUTPUT REQUESTS
** 
*Restart, write, frequency=0
** 
** FIELD OUTPUT: F-Output-1
** 
*Output, field
*Node Output
NT, RF, U
*Element Output, directions=YES
HFL, PEEQ, S
** 
** HISTORY OUTPUT: H-Output-1
** 
*Output, history
*Energy Output
ALLAE, ALLIE, ALLKE, ALLPD, ALLSD, ALLSE, ALLWK, ETOTAL
*End Step
** ----------------------------------------------------------------
** 
** STEP: step_cool_16
** 
*Step, name=step_cool_16, nlgeom=YES, inc=999999
*Coupled Temperature-displacement, creep=none, deltmx=400.
0.01, 3.4, 3.4e-30, 0.2
** 
** LOADS
** 
** Name: load_body_hflux_16   Type: Body heat flux
*Dflux, op=NEW
** 
** OUTPUT REQUESTS
** 
*Restart, write, frequency=0
** 
** FIELD OUTPUT: F-Output-1
** 
*Output, field
*Node Output
NT, RF, U
*Element Output, directions=YES
HFL, PEEQ, S
** 
** HISTORY OUTPUT: H-Output-1
** 
*Output, history
*Energy Output
ALLAE, ALLIE, ALLKE, ALLPD, ALLSD, ALLSE, ALLWK, ETOTAL
*End Step
** ----------------------------------------------------------------
** 
** STEP: step_scan_17
** 
*Step, name=step_scan_17, nlgeom=YES, inc=999999
*Coupled Temperature-displacement, creep=none, deltmx=400.
0.001, 0.2, 2e-30, 0.01
** 
** LOADS
** 
** Name: load_body_hflux_17   Type: Body heat flux
*Dflux
inst_plate.set_body_heat_19, BF, 8e+10
** 
** OUTPUT REQUESTS
** 
*Restart, write, frequency=0
** 
** FIELD OUTPUT: F-Output-1
** 
*Output, field
*Node Output
NT, RF, U
*Element Output, directions=YES
HFL, PEEQ, S
** 
** HISTORY OUTPUT: H-Output-1
** 
*Output, history
*Energy Output
ALLAE, ALLIE, ALLKE, ALLPD, ALLSD, ALLSE, ALLWK, ETOTAL
*End Step
** ----------------------------------------------------------------
** 
** STEP: step_cool_17
** 
*Step, name=step_cool_17, nlgeom=YES, inc=999999
*Coupled Temperature-displacement, creep=none, deltmx=400.
0.01, 3.4, 3.4e-30, 0.2
** 
** LOADS
** 
** Name: load_body_hflux_17   Type: Body heat flux
*Dflux, op=NEW
** 
** OUTPUT REQUESTS
** 
*Restart, write, frequency=0
** 
** FIELD OUTPUT: F-Output-1
** 
*Output, field
*Node Output
NT, RF, U
*Element Output, directions=YES
HFL, PEEQ, S
** 
** HISTORY OUTPUT: H-Output-1
** 
*Output, history
*Energy Output
ALLAE, ALLIE, ALLKE, ALLPD, ALLSD, ALLSE, ALLWK, ETOTAL
*End Step
** ----------------------------------------------------------------
** 
** STEP: step_scan_18
** 
*Step, name=step_scan_18, nlgeom=YES, inc=999999
*Coupled Temperature-displacement, creep=none, deltmx=400.
0.001, 0.2, 2e-30, 0.01
** 
** LOADS
** 
** Name: load_body_hflux_18   Type: Body heat flux
*Dflux
inst_plate.set_body_heat_06, BF, 8e+10
** 
** OUTPUT REQUESTS
** 
*Restart, write, frequency=0
** 
** FIELD OUTPUT: F-Output-1
** 
*Output, field
*Node Output
NT, RF, U
*Element Output, directions=YES
HFL, PEEQ, S
** 
** HISTORY OUTPUT: H-Output-1
** 
*Output, history
*Energy Output
ALLAE, ALLIE, ALLKE, ALLPD, ALLSD, ALLSE, ALLWK, ETOTAL
*End Step
** ----------------------------------------------------------------
** 
** STEP: step_cool_18
** 
*Step, name=step_cool_18, nlgeom=YES, inc=999999
*Coupled Temperature-displacement, creep=none, deltmx=400.
0.01, 3.4, 3.4e-30, 0.2
** 
** LOADS
** 
** Name: load_body_hflux_18   Type: Body heat flux
*Dflux, op=NEW
** 
** OUTPUT REQUESTS
** 
*Restart, write, frequency=0
** 
** FIELD OUTPUT: F-Output-1
** 
*Output, field
*Node Output
NT, RF, U
*Element Output, directions=YES
HFL, PEEQ, S
** 
** HISTORY OUTPUT: H-Output-1
** 
*Output, history
*Energy Output
ALLAE, ALLIE, ALLKE, ALLPD, ALLSD, ALLSE, ALLWK, ETOTAL
*End Step
** ----------------------------------------------------------------
** 
** STEP: step_scan_19
** 
*Step, name=step_scan_19, nlgeom=YES, inc=999999
*Coupled Temperature-displacement, creep=none, deltmx=400.
0.001, 0.2, 2e-30, 0.01
** 
** LOADS
** 
** Name: load_body_hflux_19   Type: Body heat flux
*Dflux
inst_plate.set_body_heat_17, BF, 8e+10
** 
** OUTPUT REQUESTS
** 
*Restart, write, frequency=0
** 
** FIELD OUTPUT: F-Output-1
** 
*Output, field
*Node Output
NT, RF, U
*Element Output, directions=YES
HFL, PEEQ, S
** 
** HISTORY OUTPUT: H-Output-1
** 
*Output, history
*Energy Output
ALLAE, ALLIE, ALLKE, ALLPD, ALLSD, ALLSE, ALLWK, ETOTAL
*End Step
** ----------------------------------------------------------------
** 
** STEP: step_cool_19
** 
*Step, name=step_cool_19, nlgeom=YES, inc=999999
*Coupled Temperature-displacement, creep=none, deltmx=400.
0.01, 3.4, 3.4e-30, 0.2
** 
** LOADS
** 
** Name: load_body_hflux_19   Type: Body heat flux
*Dflux, op=NEW
** 
** OUTPUT REQUESTS
** 
*Restart, write, frequency=0
** 
** FIELD OUTPUT: F-Output-1
** 
*Output, field
*Node Output
NT, RF, U
*Element Output, directions=YES
HFL, PEEQ, S
** 
** HISTORY OUTPUT: H-Output-1
** 
*Output, history
*Energy Output
ALLAE, ALLIE, ALLKE, ALLPD, ALLSD, ALLSE, ALLWK, ETOTAL
*End Step
** ----------------------------------------------------------------
** 
** STEP: step_scan_20
** 
*Step, name=step_scan_20, nlgeom=YES, inc=999999
*Coupled Temperature-displacement, creep=none, deltmx=400.
0.001, 0.2, 2e-30, 0.01
** 
** LOADS
** 
** Name: load_body_hflux_20   Type: Body heat flux
*Dflux
inst_plate.set_body_heat_04, BF, 8e+10
** 
** OUTPUT REQUESTS
** 
*Restart, write, frequency=0
** 
** FIELD OUTPUT: F-Output-1
** 
*Output, field
*Node Output
NT, RF, U
*Element Output, directions=YES
HFL, PEEQ, S
** 
** HISTORY OUTPUT: H-Output-1
** 
*Output, history
*Energy Output
ALLAE, ALLIE, ALLKE, ALLPD, ALLSD, ALLSE, ALLWK, ETOTAL
*End Step
** ----------------------------------------------------------------
** 
** STEP: step_cool_20
** 
*Step, name=step_cool_20, nlgeom=YES, inc=999999
*Coupled Temperature-displacement, creep=none, deltmx=400.
0.01, 3.4, 3.4e-30, 0.2
** 
** LOADS
** 
** Name: load_body_hflux_20   Type: Body heat flux
*Dflux, op=NEW
** 
** OUTPUT REQUESTS
** 
*Restart, write, frequency=0
** 
** FIELD OUTPUT: F-Output-1
** 
*Output, field
*Node Output
NT, RF, U
*Element Output, directions=YES
HFL, PEEQ, S
** 
** HISTORY OUTPUT: H-Output-1
** 
*Output, history
*Energy Output
ALLAE, ALLIE, ALLKE, ALLPD, ALLSD, ALLSE, ALLWK, ETOTAL
*End Step
** ----------------------------------------------------------------
** 
** STEP: step_scan_21
** 
*Step, name=step_scan_21, nlgeom=YES, inc=999999
*Coupled Temperature-displacement, creep=none, deltmx=400.
0.001, 0.2, 2e-30, 0.01
** 
** LOADS
** 
** Name: load_body_hflux_21   Type: Body heat flux
*Dflux
inst_plate.set_body_heat_15, BF, 8e+10
** 
** OUTPUT REQUESTS
** 
*Restart, write, frequency=0
** 
** FIELD OUTPUT: F-Output-1
** 
*Output, field
*Node Output
NT, RF, U
*Element Output, directions=YES
HFL, PEEQ, S
** 
** HISTORY OUTPUT: H-Output-1
** 
*Output, history
*Energy Output
ALLAE, ALLIE, ALLKE, ALLPD, ALLSD, ALLSE, ALLWK, ETOTAL
*End Step
** ----------------------------------------------------------------
** 
** STEP: step_cool_21
** 
*Step, name=step_cool_21, nlgeom=YES, inc=999999
*Coupled Temperature-displacement, creep=none, deltmx=400.
0.01, 3.4, 3.4e-30, 0.2
** 
** LOADS
** 
** Name: load_body_hflux_21   Type: Body heat flux
*Dflux, op=NEW
** 
** OUTPUT REQUESTS
** 
*Restart, write, frequency=0
** 
** FIELD OUTPUT: F-Output-1
** 
*Output, field
*Node Output
NT, RF, U
*Element Output, directions=YES
HFL, PEEQ, S
** 
** HISTORY OUTPUT: H-Output-1
** 
*Output, history
*Energy Output
ALLAE, ALLIE, ALLKE, ALLPD, ALLSD, ALLSE, ALLWK, ETOTAL
*End Step
** ----------------------------------------------------------------
** 
** STEP: step_scan_22
** 
*Step, name=step_scan_22, nlgeom=YES, inc=999999
*Coupled Temperature-displacement, creep=none, deltmx=400.
0.001, 0.2, 2e-30, 0.01
** 
** LOADS
** 
** Name: load_body_hflux_22   Type: Body heat flux
*Dflux
inst_plate.set_body_heat_02, BF, 8e+10
** 
** OUTPUT REQUESTS
** 
*Restart, write, frequency=0
** 
** FIELD OUTPUT: F-Output-1
** 
*Output, field
*Node Output
NT, RF, U
*Element Output, directions=YES
HFL, PEEQ, S
** 
** HISTORY OUTPUT: H-Output-1
** 
*Output, history
*Energy Output
ALLAE, ALLIE, ALLKE, ALLPD, ALLSD, ALLSE, ALLWK, ETOTAL
*End Step
** ----------------------------------------------------------------
** 
** STEP: step_cool_22
** 
*Step, name=step_cool_22, nlgeom=YES, inc=999999
*Coupled Temperature-displacement, creep=none, deltmx=400.
0.01, 3.4, 3.4e-30, 0.2
** 
** LOADS
** 
** Name: load_body_hflux_22   Type: Body heat flux
*Dflux, op=NEW
** 
** OUTPUT REQUESTS
** 
*Restart, write, frequency=0
** 
** FIELD OUTPUT: F-Output-1
** 
*Output, field
*Node Output
NT, RF, U
*Element Output, directions=YES
HFL, PEEQ, S
** 
** HISTORY OUTPUT: H-Output-1
** 
*Output, history
*Energy Output
ALLAE, ALLIE, ALLKE, ALLPD, ALLSD, ALLSE, ALLWK, ETOTAL
*End Step
** ----------------------------------------------------------------
** 
** STEP: step_scan_23
** 
*Step, name=step_scan_23, nlgeom=YES, inc=999999
*Coupled Temperature-displacement, creep=none, deltmx=400.
0.001, 0.2, 2e-30, 0.01
** 
** LOADS
** 
** Name: load_body_hflux_23   Type: Body heat flux
*Dflux
inst_plate.set_body_heat_13, BF, 8e+10
** 
** OUTPUT REQUESTS
** 
*Restart, write, frequency=0
** 
** FIELD OUTPUT: F-Output-1
** 
*Output, field
*Node Output
NT, RF, U
*Element Output, directions=YES
HFL, PEEQ, S
** 
** HISTORY OUTPUT: H-Output-1
** 
*Output, history
*Energy Output
ALLAE, ALLIE, ALLKE, ALLPD, ALLSD, ALLSE, ALLWK, ETOTAL
*End Step
** ----------------------------------------------------------------
** 
** STEP: step_cool_23
** 
*Step, name=step_cool_23, nlgeom=YES, inc=999999
*Coupled Temperature-displacement, creep=none, deltmx=400.
0.01, 3.4, 3.4e-30, 0.2
** 
** LOADS
** 
** Name: load_body_hflux_23   Type: Body heat flux
*Dflux, op=NEW
** 
** OUTPUT REQUESTS
** 
*Restart, write, frequency=0
** 
** FIELD OUTPUT: F-Output-1
** 
*Output, field
*Node Output
NT, RF, U
*Element Output, directions=YES
HFL, PEEQ, S
** 
** HISTORY OUTPUT: H-Output-1
** 
*Output, history
*Energy Output
ALLAE, ALLIE, ALLKE, ALLPD, ALLSD, ALLSE, ALLWK, ETOTAL
*End Step
** ----------------------------------------------------------------
** 
** STEP: step_final_cooling
** 
*Step, name=step_final_cooling, nlgeom=YES, inc=999999
*Coupled Temperature-displacement, creep=none, deltmx=400.
0.01, 1200., 3.4e-30, 60.
** 
** OUTPUT REQUESTS
** 
*Restart, write, frequency=0
** 
** FIELD OUTPUT: F-Output-1
** 
*Output, field
*Node Output
NT, RF, U
*Element Output, directions=YES
HFL, PEEQ, S
** 
** HISTORY OUTPUT: H-Output-1
** 
*Output, history
*Energy Output
ALLAE, ALLIE, ALLKE, ALLPD, ALLSD, ALLSE, ALLWK, ETOTAL
*End Step
