*Heading
** Job name: J2D_S3B20_N12_B02_diversity_top Model name: Model-1
** Generated by: Abaqus/CAE 2024
*Preprint, echo=NO, model=NO, history=NO, contact=NO
**
** PARTS
**
*Part, name=part_plate
*Node
      1, 0.0260000005, 0.00200000009
      2, 0.0260000005,           0.
      3, 0.0280000009,           0.
      4, 0.0280000009, 0.00200000009
      5, 0.0260000005, 0.00300000003
      6, 0.0280000009, 0.00300000003
      7, 0.0240000002, 0.00200000009
      8, 0.0240000002,           0.
      9, 0.0240000002, 0.00300000003
     10, 0.0219999999, 0.00200000009
     11, 0.0219999999,           0.
     12, 0.0219999999, 0.00300000003
     13, 0.0199999996, 0.00200000009
     14, 0.0199999996,           0.
     15, 0.0199999996, 0.00300000003
     16, 0.0179999992, 0.00200000009
     17, 0.0179999992,           0.
     18, 0.0179999992, 0.00300000003
     19, 0.0160000008, 0.00200000009
     20, 0.0160000008,           0.
     21, 0.0160000008, 0.00300000003
     22, 0.0140000004, 0.00200000009
     23, 0.0140000004,           0.
     24, 0.0140000004, 0.00300000003
     25, 0.0120000001, 0.00200000009
     26, 0.0120000001,           0.
     27, 0.0120000001, 0.00300000003
     28, 0.00999999978, 0.00200000009
     29, 0.00999999978,           0.
     30, 0.00999999978, 0.00300000003
     31, 0.00800000038, 0.00200000009
     32, 0.00800000038,           0.
     33, 0.00800000038, 0.00300000003
     34, 0.00600000005, 0.00200000009
     35, 0.00600000005,           0.
     36, 0.00600000005, 0.00300000003
     37, 0.00400000019, 0.00200000009
     38, 0.00400000019,           0.
     39, 0.00400000019, 0.00300000003
     40, 0.00200000009, 0.00200000009
     41, 0.00200000009,           0.
     42,           0., 0.00200000009
     43,           0.,           0.
     44, 0.00200000009, 0.00300000003
     45,           0., 0.00300000003
     46, 0.0260000005, 0.00150000001
     47, 0.0260000005, 0.00100000005
     48, 0.0260000005, 0.000500000024
     49, 0.0264999997,           0.
     50, 0.0270000007,           0.
     51, 0.0274999999,           0.
     52, 0.0280000009, 0.000500000024
     53, 0.0280000009, 0.00100000005
     54, 0.0280000009, 0.00150000001
     55, 0.0274999999, 0.00200000009
     56, 0.0270000007, 0.00200000009
     57, 0.0264999997, 0.00200000009
     58, 0.0260000005, 0.00249999994
     59, 0.0280000009, 0.00249999994
     60, 0.0274999999, 0.00300000003
     61, 0.0270000007, 0.00300000003
     62, 0.0264999997, 0.00300000003
     63, 0.0240000002, 0.00150000001
     64, 0.0240000002, 0.00100000005
     65, 0.0240000002, 0.000500000024
     66, 0.0244999994,           0.
     67, 0.0250000004,           0.
     68, 0.0254999995,           0.
     69, 0.0254999995, 0.00200000009
     70, 0.0250000004, 0.00200000009
     71, 0.0244999994, 0.00200000009
     72, 0.0240000002, 0.00249999994
     73, 0.0254999995, 0.00300000003
     74, 0.0250000004, 0.00300000003
     75, 0.0244999994, 0.00300000003
     76, 0.0234999992, 0.00200000009
     77,        0.023, 0.00200000009
     78, 0.0225000009, 0.00200000009
     79, 0.0219999999, 0.00150000001
     80, 0.0219999999, 0.00100000005
     81, 0.0219999999, 0.000500000024
     82, 0.0225000009,           0.
     83,        0.023,           0.
     84, 0.0234999992,           0.
     85, 0.0219999999, 0.00249999994
     86, 0.0234999992, 0.00300000003
     87,        0.023, 0.00300000003
     88, 0.0225000009, 0.00300000003
     89, 0.0199999996, 0.00150000001
     90, 0.0199999996, 0.00100000005
     91, 0.0199999996, 0.000500000024
     92, 0.0205000006,           0.
     93, 0.0209999997,           0.
     94, 0.0215000007,           0.
     95, 0.0215000007, 0.00200000009
     96, 0.0209999997, 0.00200000009
     97, 0.0205000006, 0.00200000009
     98, 0.0199999996, 0.00249999994
     99, 0.0215000007, 0.00300000003
    100, 0.0209999997, 0.00300000003
    101, 0.0205000006, 0.00300000003
    102, 0.0179999992, 0.00150000001
    103, 0.0179999992, 0.00100000005
    104, 0.0179999992, 0.000500000024
    105, 0.0185000002,           0.
    106, 0.0189999994,           0.
    107, 0.0195000004,           0.
    108, 0.0195000004, 0.00200000009
    109, 0.0189999994, 0.00200000009
    110, 0.0185000002, 0.00200000009
    111, 0.0179999992, 0.00249999994
    112, 0.0195000004, 0.00300000003
    113, 0.0189999994, 0.00300000003
    114, 0.0185000002, 0.00300000003
    115, 0.0160000008, 0.00150000001
    116, 0.0160000008, 0.00100000005
    117, 0.0160000008, 0.000500000024
    118, 0.0164999999,           0.
    119, 0.0170000009,           0.
    120, 0.0175000001,           0.
    121, 0.0175000001, 0.00200000009
    122, 0.0170000009, 0.00200000009
    123, 0.0164999999, 0.00200000009
    124, 0.0160000008, 0.00249999994
    125, 0.0175000001, 0.00300000003
    126, 0.0170000009, 0.00300000003
    127, 0.0164999999, 0.00300000003
    128, 0.0140000004, 0.00150000001
    129, 0.0140000004, 0.00100000005
    130, 0.0140000004, 0.000500000024
    131, 0.0144999996,           0.
    132, 0.0149999997,           0.
    133, 0.0154999997,           0.
    134, 0.0154999997, 0.00200000009
    135, 0.0149999997, 0.00200000009
    136, 0.0144999996, 0.00200000009
    137, 0.0140000004, 0.00249999994
    138, 0.0154999997, 0.00300000003
    139, 0.0149999997, 0.00300000003
    140, 0.0144999996, 0.00300000003
    141, 0.0120000001, 0.00150000001
    142, 0.0120000001, 0.00100000005
    143, 0.0120000001, 0.000500000024
    144, 0.0125000002,           0.
    145, 0.0130000003,           0.
    146, 0.0135000004,           0.
    147, 0.0135000004, 0.00200000009
    148, 0.0130000003, 0.00200000009
    149, 0.0125000002, 0.00200000009
    150, 0.0120000001, 0.00249999994
    151, 0.0135000004, 0.00300000003
    152, 0.0130000003, 0.00300000003
    153, 0.0125000002, 0.00300000003
    154, 0.00999999978, 0.00150000001
    155, 0.00999999978, 0.00100000005
    156, 0.00999999978, 0.000500000024
    157, 0.0104999999,           0.
    158, 0.0109999999,           0.
    159,       0.0115,           0.
    160,       0.0115, 0.00200000009
    161, 0.0109999999, 0.00200000009
    162, 0.0104999999, 0.00200000009
    163, 0.00999999978, 0.00249999994
    164,       0.0115, 0.00300000003
    165, 0.0109999999, 0.00300000003
    166, 0.0104999999, 0.00300000003
    167, 0.00800000038, 0.00150000001
    168, 0.00800000038, 0.00100000005
    169, 0.00800000038, 0.000500000024
    170, 0.00850000046,           0.
    171, 0.00899999961,           0.
    172, 0.00949999969,           0.
    173, 0.00949999969, 0.00200000009
    174, 0.00899999961, 0.00200000009
    175, 0.00850000046, 0.00200000009
    176, 0.00800000038, 0.00249999994
    177, 0.00949999969, 0.00300000003
    178, 0.00899999961, 0.00300000003
    179, 0.00850000046, 0.00300000003
    180, 0.00600000005, 0.00150000001
    181, 0.00600000005, 0.00100000005
    182, 0.00600000005, 0.000500000024
    183, 0.00650000013,           0.
    184, 0.00700000022,           0.
    185, 0.00749999983,           0.
    186, 0.00749999983, 0.00200000009
    187, 0.00700000022, 0.00200000009
    188, 0.00650000013, 0.00200000009
    189, 0.00600000005, 0.00249999994
    190, 0.00749999983, 0.00300000003
    191, 0.00700000022, 0.00300000003
    192, 0.00650000013, 0.00300000003
    193, 0.00400000019, 0.00150000001
    194, 0.00400000019, 0.00100000005
    195, 0.00400000019, 0.000500000024
    196, 0.00449999981,           0.
    197, 0.00499999989,           0.
    198, 0.00549999997,           0.
    199, 0.00549999997, 0.00200000009
    200, 0.00499999989, 0.00200000009
    201, 0.00449999981, 0.00200000009
    202, 0.00400000019, 0.00249999994
    203, 0.00549999997, 0.00300000003
    204, 0.00499999989, 0.00300000003
    205, 0.00449999981, 0.00300000003
    206, 0.00200000009, 0.00150000001
    207, 0.00200000009, 0.00100000005
    208, 0.00200000009, 0.000500000024
    209, 0.00249999994,           0.
    210, 0.00300000003,           0.
    211, 0.00350000011,           0.
    212, 0.00350000011, 0.00200000009
    213, 0.00300000003, 0.00200000009
    214, 0.00249999994, 0.00200000009
    215, 0.00150000001, 0.00200000009
    216, 0.00100000005, 0.00200000009
    217, 0.000500000024, 0.00200000009
    218,           0., 0.00150000001
    219,           0., 0.00100000005
    220,           0., 0.000500000024
    221, 0.000500000024,           0.
    222, 0.00100000005,           0.
    223, 0.00150000001,           0.
    224, 0.00200000009, 0.00249999994
    225, 0.00350000011, 0.00300000003
    226, 0.00300000003, 0.00300000003
    227, 0.00249999994, 0.00300000003
    228, 0.00150000001, 0.00300000003
    229, 0.00100000005, 0.00300000003
    230, 0.000500000024, 0.00300000003
    231,           0., 0.00249999994
    232, 0.0264999997, 0.00150000001
    233, 0.0264999997, 0.00100000005
    234, 0.0264999997, 0.000500000024
    235, 0.0270000007, 0.00150000001
    236, 0.0270000007, 0.00100000005
    237, 0.0270000007, 0.000500000024
    238, 0.0274999999, 0.00150000001
    239, 0.0274999999, 0.00100000005
    240, 0.0274999999, 0.000500000024
    241, 0.0264999997, 0.00249999994
    242, 0.0270000007, 0.00249999994
    243, 0.0274999999, 0.00249999994
    244, 0.0244999994, 0.00150000001
    245, 0.0244999994, 0.00100000005
    246, 0.0244999994, 0.000500000024
    247, 0.0250000004, 0.00150000001
    248, 0.0250000004, 0.00100000005
    249, 0.0250000004, 0.000500000024
    250, 0.0254999995, 0.00150000001
    251, 0.0254999995, 0.00100000005
    252, 0.0254999995, 0.000500000024
    253, 0.0244999994, 0.00249999994
    254, 0.0250000004, 0.00249999994
    255, 0.0254999995, 0.00249999994
    256, 0.0234999992, 0.000500000024
    257, 0.0234999992, 0.00100000005
    258, 0.0234999992, 0.00150000001
    259,        0.023, 0.000500000024
    260,        0.023, 0.00100000005
    261,        0.023, 0.00150000001
    262, 0.0225000009, 0.000500000024
    263, 0.0225000009, 0.00100000005
    264, 0.0225000009, 0.00150000001
    265, 0.0225000009, 0.00249999994
    266,        0.023, 0.00249999994
    267, 0.0234999992, 0.00249999994
    268, 0.0205000006, 0.00150000001
    269, 0.0205000006, 0.00100000005
    270, 0.0205000006, 0.000500000024
    271, 0.0209999997, 0.00150000001
    272, 0.0209999997, 0.00100000005
    273, 0.0209999997, 0.000500000024
    274, 0.0215000007, 0.00150000001
    275, 0.0215000007, 0.00100000005
    276, 0.0215000007, 0.000500000024
    277, 0.0205000006, 0.00249999994
    278, 0.0209999997, 0.00249999994
    279, 0.0215000007, 0.00249999994
    280, 0.0185000002, 0.00150000001
    281, 0.0185000002, 0.00100000005
    282, 0.0185000002, 0.000500000024
    283, 0.0189999994, 0.00150000001
    284, 0.0189999994, 0.00100000005
    285, 0.0189999994, 0.000500000024
    286, 0.0195000004, 0.00150000001
    287, 0.0195000004, 0.00100000005
    288, 0.0195000004, 0.000500000024
    289, 0.0185000002, 0.00249999994
    290, 0.0189999994, 0.00249999994
    291, 0.0195000004, 0.00249999994
    292, 0.0164999999, 0.00150000001
    293, 0.0164999999, 0.00100000005
    294, 0.0164999999, 0.000500000024
    295, 0.0170000009, 0.00150000001
    296, 0.0170000009, 0.00100000005
    297, 0.0170000009, 0.000500000024
    298, 0.0175000001, 0.00150000001
    299, 0.0175000001, 0.00100000005
    300, 0.0175000001, 0.000500000024
    301, 0.0164999999, 0.00249999994
    302, 0.0170000009, 0.00249999994
    303, 0.0175000001, 0.00249999994
    304, 0.0144999996, 0.00150000001
    305, 0.0144999996, 0.00100000005
    306, 0.0144999996, 0.000500000024
    307, 0.0149999997, 0.00150000001
    308, 0.0149999997, 0.00100000005
    309, 0.0149999997, 0.000500000024
    310, 0.0154999997, 0.00150000001
    311, 0.0154999997, 0.00100000005
    312, 0.0154999997, 0.000500000024
    313, 0.0144999996, 0.00249999994
    314, 0.0149999997, 0.00249999994
    315, 0.0154999997, 0.00249999994
    316, 0.0125000002, 0.00150000001
    317, 0.0125000002, 0.00100000005
    318, 0.0125000002, 0.000500000024
    319, 0.0130000003, 0.00150000001
    320, 0.0130000003, 0.00100000005
    321, 0.0130000003, 0.000500000024
    322, 0.0135000004, 0.00150000001
    323, 0.0135000004, 0.00100000005
    324, 0.0135000004, 0.000500000024
    325, 0.0125000002, 0.00249999994
    326, 0.0130000003, 0.00249999994
    327, 0.0135000004, 0.00249999994
    328, 0.0104999999, 0.00150000001
    329, 0.0104999999, 0.00100000005
    330, 0.0104999999, 0.000500000024
    331, 0.0109999999, 0.00150000001
    332, 0.0109999999, 0.00100000005
    333, 0.0109999999, 0.000500000024
    334,       0.0115, 0.00150000001
    335,       0.0115, 0.00100000005
    336,       0.0115, 0.000500000024
    337, 0.0104999999, 0.00249999994
    338, 0.0109999999, 0.00249999994
    339,       0.0115, 0.00249999994
    340, 0.00850000046, 0.00150000001
    341, 0.00850000046, 0.00100000005
    342, 0.00850000046, 0.000500000024
    343, 0.00899999961, 0.00150000001
    344, 0.00899999961, 0.00100000005
    345, 0.00899999961, 0.000500000024
    346, 0.00949999969, 0.00150000001
    347, 0.00949999969, 0.00100000005
    348, 0.00949999969, 0.000500000024
    349, 0.00850000046, 0.00249999994
    350, 0.00899999961, 0.00249999994
    351, 0.00949999969, 0.00249999994
    352, 0.00650000013, 0.00150000001
    353, 0.00650000013, 0.00100000005
    354, 0.00650000013, 0.000500000024
    355, 0.00700000022, 0.00150000001
    356, 0.00700000022, 0.00100000005
    357, 0.00700000022, 0.000500000024
    358, 0.00749999983, 0.00150000001
    359, 0.00749999983, 0.00100000005
    360, 0.00749999983, 0.000500000024
    361, 0.00650000013, 0.00249999994
    362, 0.00700000022, 0.00249999994
    363, 0.00749999983, 0.00249999994
    364, 0.00449999981, 0.00150000001
    365, 0.00449999981, 0.00100000005
    366, 0.00449999981, 0.000500000024
    367, 0.00499999989, 0.00150000001
    368, 0.00499999989, 0.00100000005
    369, 0.00499999989, 0.000500000024
    370, 0.00549999997, 0.00150000001
    371, 0.00549999997, 0.00100000005
    372, 0.00549999997, 0.000500000024
    373, 0.00449999981, 0.00249999994
    374, 0.00499999989, 0.00249999994
    375, 0.00549999997, 0.00249999994
    376, 0.00249999994, 0.00150000001
    377, 0.00249999994, 0.00100000005
    378, 0.00249999994, 0.000500000024
    379, 0.00300000003, 0.00150000001
    380, 0.00300000003, 0.00100000005
    381, 0.00300000003, 0.000500000024
    382, 0.00350000011, 0.00150000001
    383, 0.00350000011, 0.00100000005
    384, 0.00350000011, 0.000500000024
    385, 0.00150000001, 0.00150000001
    386, 0.00100000005, 0.00150000001
    387, 0.000500000024, 0.00150000001
    388, 0.00150000001, 0.00100000005
    389, 0.00100000005, 0.00100000005
    390, 0.000500000024, 0.00100000005
    391, 0.00150000001, 0.000500000024
    392, 0.00100000005, 0.000500000024
    393, 0.000500000024, 0.000500000024
    394, 0.00249999994, 0.00249999994
    395, 0.00300000003, 0.00249999994
    396, 0.00350000011, 0.00249999994
    397, 0.00150000001, 0.00249999994
    398, 0.00100000005, 0.00249999994
    399, 0.000500000024, 0.00249999994
*Element, type=CPE4T
 1,   1,  46, 232,  57
 2,  46,  47, 233, 232
 3,  47,  48, 234, 233
 4,  48,   2,  49, 234
 5,  57, 232, 235,  56
 6, 232, 233, 236, 235
 7, 233, 234, 237, 236
 8, 234,  49,  50, 237
 9,  56, 235, 238,  55
10, 235, 236, 239, 238
11, 236, 237, 240, 239
12, 237,  50,  51, 240
13,  55, 238,  54,   4
14, 238, 239,  53,  54
15, 239, 240,  52,  53
16, 240,  51,   3,  52
17,   5,  58, 241,  62
18,  58,   1,  57, 241
19,  62, 241, 242,  61
20, 241,  57,  56, 242
21,  61, 242, 243,  60
22, 242,  56,  55, 243
23,  60, 243,  59,   6
24, 243,  55,   4,  59
25,   7,  63, 244,  71
26,  63,  64, 245, 244
27,  64,  65, 246, 245
28,  65,   8,  66, 246
29,  71, 244, 247,  70
30, 244, 245, 248, 247
31, 245, 246, 249, 248
32, 246,  66,  67, 249
33,  70, 247, 250,  69
34, 247, 248, 251, 250
35, 248, 249, 252, 251
36, 249,  67,  68, 252
37,  69, 250,  46,   1
38, 250, 251,  47,  46
39, 251, 252,  48,  47
40, 252,  68,   2,  48
41,   9,  72, 253,  75
42,  72,   7,  71, 253
43,  75, 253, 254,  74
44, 253,  71,  70, 254
45,  74, 254, 255,  73
46, 254,  70,  69, 255
47,  73, 255,  58,   5
48, 255,  69,   1,  58
49,   8,  65, 256,  84
50,  65,  64, 257, 256
51,  64,  63, 258, 257
52,  63,   7,  76, 258
53,  84, 256, 259,  83
54, 256, 257, 260, 259
55, 257, 258, 261, 260
56, 258,  76,  77, 261
57,  83, 259, 262,  82
58, 259, 260, 263, 262
59, 260, 261, 264, 263
60, 261,  77,  78, 264
61,  82, 262,  81,  11
62, 262, 263,  80,  81
63, 263, 264,  79,  80
64, 264,  78,  10,  79
65,  12,  85, 265,  88
66,  85,  10,  78, 265
67,  88, 265, 266,  87
68, 265,  78,  77, 266
69,  87, 266, 267,  86
70, 266,  77,  76, 267
71,  86, 267,  72,   9
72, 267,  76,   7,  72
73,  13,  89, 268,  97
74,  89,  90, 269, 268
75,  90,  91, 270, 269
76,  91,  14,  92, 270
77,  97, 268, 271,  96
78, 268, 269, 272, 271
79, 269, 270, 273, 272
80, 270,  92,  93, 273
81,  96, 271, 274,  95
82, 271, 272, 275, 274
83, 272, 273, 276, 275
84, 273,  93,  94, 276
85,  95, 274,  79,  10
86, 274, 275,  80,  79
87, 275, 276,  81,  80
88, 276,  94,  11,  81
89,  15,  98, 277, 101
90,  98,  13,  97, 277
91, 101, 277, 278, 100
92, 277,  97,  96, 278
93, 100, 278, 279,  99
94, 278,  96,  95, 279
95,  99, 279,  85,  12
96, 279,  95,  10,  85
 97,  16, 102, 280, 110
 98, 102, 103, 281, 280
 99, 103, 104, 282, 281
100, 104,  17, 105, 282
101, 110, 280, 283, 109
102, 280, 281, 284, 283
103, 281, 282, 285, 284
104, 282, 105, 106, 285
105, 109, 283, 286, 108
106, 283, 284, 287, 286
107, 284, 285, 288, 287
108, 285, 106, 107, 288
109, 108, 286,  89,  13
110, 286, 287,  90,  89
111, 287, 288,  91,  90
112, 288, 107,  14,  91
113,  18, 111, 289, 114
114, 111,  16, 110, 289
115, 114, 289, 290, 113
116, 289, 110, 109, 290
117, 113, 290, 291, 112
118, 290, 109, 108, 291
119, 112, 291,  98,  15
120, 291, 108,  13,  98
121,  19, 115, 292, 123
122, 115, 116, 293, 292
123, 116, 117, 294, 293
124, 117,  20, 118, 294
125, 123, 292, 295, 122
126, 292, 293, 296, 295
127, 293, 294, 297, 296
128, 294, 118, 119, 297
129, 122, 295, 298, 121
130, 295, 296, 299, 298
131, 296, 297, 300, 299
132, 297, 119, 120, 300
133, 121, 298, 102,  16
134, 298, 299, 103, 102
135, 299, 300, 104, 103
136, 300, 120,  17, 104
137,  21, 124, 301, 127
138, 124,  19, 123, 301
139, 127, 301, 302, 126
140, 301, 123, 122, 302
141, 126, 302, 303, 125
142, 302, 122, 121, 303
143, 125, 303, 111,  18
144, 303, 121,  16, 111
145,  22, 128, 304, 136
146, 128, 129, 305, 304
147, 129, 130, 306, 305
148, 130,  23, 131, 306
149, 136, 304, 307, 135
150, 304, 305, 308, 307
151, 305, 306, 309, 308
152, 306, 131, 132, 309
153, 135, 307, 310, 134
154, 307, 308, 311, 310
155, 308, 309, 312, 311
156, 309, 132, 133, 312
157, 134, 310, 115,  19
158, 310, 311, 116, 115
159, 311, 312, 117, 116
160, 312, 133,  20, 117
161,  24, 137, 313, 140
162, 137,  22, 136, 313
163, 140, 313, 314, 139
164, 313, 136, 135, 314
165, 139, 314, 315, 138
166, 314, 135, 134, 315
167, 138, 315, 124,  21
168, 315, 134,  19, 124
169,  25, 141, 316, 149
170, 141, 142, 317, 316
171, 142, 143, 318, 317
172, 143,  26, 144, 318
173, 149, 316, 319, 148
174, 316, 317, 320, 319
175, 317, 318, 321, 320
176, 318, 144, 145, 321
177, 148, 319, 322, 147
178, 319, 320, 323, 322
179, 320, 321, 324, 323
180, 321, 145, 146, 324
181, 147, 322, 128,  22
182, 322, 323, 129, 128
183, 323, 324, 130, 129
184, 324, 146,  23, 130
185,  27, 150, 325, 153
186, 150,  25, 149, 325
187, 153, 325, 326, 152
188, 325, 149, 148, 326
189, 152, 326, 327, 151
190, 326, 148, 147, 327
191, 151, 327, 137,  24
192, 327, 147,  22, 137
193,  28, 154, 328, 162
194, 154, 155, 329, 328
195, 155, 156, 330, 329
196, 156,  29, 157, 330
197, 162, 328, 331, 161
198, 328, 329, 332, 331
199, 329, 330, 333, 332
200, 330, 157, 158, 333
201, 161, 331, 334, 160
202, 331, 332, 335, 334
203, 332, 333, 336, 335
204, 333, 158, 159, 336
205, 160, 334, 141,  25
206, 334, 335, 142, 141
207, 335, 336, 143, 142
208, 336, 159,  26, 143
209,  30, 163, 337, 166
210, 163,  28, 162, 337
211, 166, 337, 338, 165
212, 337, 162, 161, 338
213, 165, 338, 339, 164
214, 338, 161, 160, 339
215, 164, 339, 150,  27
216, 339, 160,  25, 150
217,  31, 167, 340, 175
218, 167, 168, 341, 340
219, 168, 169, 342, 341
220, 169,  32, 170, 342
221, 175, 340, 343, 174
222, 340, 341, 344, 343
223, 341, 342, 345, 344
224, 342, 170, 171, 345
225, 174, 343, 346, 173
226, 343, 344, 347, 346
227, 344, 345, 348, 347
228, 345, 171, 172, 348
229, 173, 346, 154,  28
230, 346, 347, 155, 154
231, 347, 348, 156, 155
232, 348, 172,  29, 156
233,  33, 176, 349, 179
234, 176,  31, 175, 349
235, 179, 349, 350, 178
236, 349, 175, 174, 350
237, 178, 350, 351, 177
238, 350, 174, 173, 351
239, 177, 351, 163,  30
240, 351, 173,  28, 163
241,  34, 180, 352, 188
242, 180, 181, 353, 352
243, 181, 182, 354, 353
244, 182,  35, 183, 354
245, 188, 352, 355, 187
246, 352, 353, 356, 355
247, 353, 354, 357, 356
248, 354, 183, 184, 357
249, 187, 355, 358, 186
250, 355, 356, 359, 358
251, 356, 357, 360, 359
252, 357, 184, 185, 360
253, 186, 358, 167,  31
254, 358, 359, 168, 167
255, 359, 360, 169, 168
256, 360, 185,  32, 169
257,  36, 189, 361, 192
258, 189,  34, 188, 361
259, 192, 361, 362, 191
260, 361, 188, 187, 362
261, 191, 362, 363, 190
262, 362, 187, 186, 363
263, 190, 363, 176,  33
264, 363, 186,  31, 176
265,  37, 193, 364, 201
266, 193, 194, 365, 364
267, 194, 195, 366, 365
268, 195,  38, 196, 366
269, 201, 364, 367, 200
270, 364, 365, 368, 367
271, 365, 366, 369, 368
272, 366, 196, 197, 369
273, 200, 367, 370, 199
274, 367, 368, 371, 370
275, 368, 369, 372, 371
276, 369, 197, 198, 372
277, 199, 370, 180,  34
278, 370, 371, 181, 180
279, 371, 372, 182, 181
280, 372, 198,  35, 182
281,  39, 202, 373, 205
282, 202,  37, 201, 373
283, 205, 373, 374, 204
284, 373, 201, 200, 374
285, 204, 374, 375, 203
286, 374, 200, 199, 375
287, 203, 375, 189,  36
288, 375, 199,  34, 189
289,  40, 206, 376, 214
290, 206, 207, 377, 376
291, 207, 208, 378, 377
292, 208,  41, 209, 378
293, 214, 376, 379, 213
294, 376, 377, 380, 379
295, 377, 378, 381, 380
296, 378, 209, 210, 381
297, 213, 379, 382, 212
298, 379, 380, 383, 382
299, 380, 381, 384, 383
300, 381, 210, 211, 384
301, 212, 382, 193,  37
302, 382, 383, 194, 193
303, 383, 384, 195, 194
304, 384, 211,  38, 195
305,  40, 215, 385, 206
306, 215, 216, 386, 385
307, 216, 217, 387, 386
308, 217,  42, 218, 387
309, 206, 385, 388, 207
310, 385, 386, 389, 388
311, 386, 387, 390, 389
312, 387, 218, 219, 390
313, 207, 388, 391, 208
314, 388, 389, 392, 391
315, 389, 390, 393, 392
316, 390, 219, 220, 393
317, 208, 391, 223,  41
318, 391, 392, 222, 223
319, 392, 393, 221, 222
320, 393, 220,  43, 221
321,  44, 224, 394, 227
322, 224,  40, 214, 394
323, 227, 394, 395, 226
324, 394, 214, 213, 395
325, 226, 395, 396, 225
326, 395, 213, 212, 396
327, 225, 396, 202,  39
328, 396, 212,  37, 202
329,  40, 224, 397, 215
330, 224,  44, 228, 397
331, 215, 397, 398, 216
332, 397, 228, 229, 398
333, 216, 398, 399, 217
334, 398, 229, 230, 399
335, 217, 399, 231,  42
336, 399, 230,  45, 231
*Nset, nset=section_all, generate
   1,  399,    1
*Elset, elset=section_all, generate
   1,  336,    1
*Nset, nset=set_body_heat_00
  37,  39,  40,  44, 202, 212, 213, 214, 224, 225, 226, 227, 394, 395, 396
*Elset, elset=set_body_heat_00, generate
 321,  328,    1
*Nset, nset=set_body_heat_01
  34,  36,  37,  39, 189, 199, 200, 201, 202, 203, 204, 205, 373, 374, 375
*Elset, elset=set_body_heat_01, generate
 281,  288,    1
*Nset, nset=set_body_heat_02
  31,  33,  34,  36, 176, 186, 187, 188, 189, 190, 191, 192, 361, 362, 363
*Elset, elset=set_body_heat_02, generate
 257,  264,    1
*Nset, nset=set_body_heat_03
  28,  30,  31,  33, 163, 173, 174, 175, 176, 177, 178, 179, 349, 350, 351
*Elset, elset=set_body_heat_03, generate
 233,  240,    1
*Nset, nset=set_body_heat_04
  25,  27,  28,  30, 150, 160, 161, 162, 163, 164, 165, 166, 337, 338, 339
*Elset, elset=set_body_heat_04, generate
 209,  216,    1
*Nset, nset=set_body_heat_05
  22,  24,  25,  27, 137, 147, 148, 149, 150, 151, 152, 153, 325, 326, 327
*Elset, elset=set_body_heat_05, generate
 185,  192,    1
*Nset, nset=set_body_heat_06
  19,  21,  22,  24, 124, 134, 135, 136, 137, 138, 139, 140, 313, 314, 315
*Elset, elset=set_body_heat_06, generate
 161,  168,    1
*Nset, nset=set_body_heat_07
  16,  18,  19,  21, 111, 121, 122, 123, 124, 125, 126, 127, 301, 302, 303
*Elset, elset=set_body_heat_07, generate
 137,  144,    1
*Nset, nset=set_body_heat_08
  13,  15,  16,  18,  98, 108, 109, 110, 111, 112, 113, 114, 289, 290, 291
*Elset, elset=set_body_heat_08, generate
 113,  120,    1
*Nset, nset=set_body_heat_09
  10,  12,  13,  15,  85,  95,  96,  97,  98,  99, 100, 101, 277, 278, 279
*Elset, elset=set_body_heat_09, generate
 89,  96,   1
*Nset, nset=set_body_heat_10
   7,   9,  10,  12,  72,  76,  77,  78,  85,  86,  87,  88, 265, 266, 267
*Elset, elset=set_body_heat_10, generate
 65,  72,   1
*Nset, nset=set_body_heat_11
   1,   5,   7,   9,  58,  69,  70,  71,  72,  73,  74,  75, 253, 254, 255
*Elset, elset=set_body_heat_11, generate
 41,  48,   1
*Elset, elset=_surf_external_all_S2, internal
   4,   8,  12,  16,  28,  32,  36,  40,  76,  80,  84,  88, 100, 104, 108, 112
 124, 128, 132, 136, 148, 152, 156, 160, 172, 176, 180, 184, 196, 200, 204, 208
 220, 224, 228, 232, 244, 248, 252, 256, 268, 272, 276, 280, 292, 296, 300, 304
 308, 312, 316, 320, 330, 332, 334, 336
*Elset, elset=_surf_external_all_S3, internal
  13,  14,  15,  16,  23,  24, 317, 318, 319, 320, 335, 336
*Elset, elset=_surf_external_all_S4, internal
  17,  19,  21,  23,  41,  43,  45,  47,  49,  53,  57,  61,  65,  67,  69,  71
  89,  91,  93,  95, 113, 115, 117, 119, 137, 139, 141, 143, 161, 163, 165, 167
 185, 187, 189, 191, 209, 211, 213, 215, 233, 235, 237, 239, 257, 259, 261, 263
 281, 283, 285, 287, 321, 323, 325, 327
*Surface, type=ELEMENT, name=surf_external_all
_surf_external_all_S2, S2
_surf_external_all_S3, S3
_surf_external_all_S4, S4
** Section: property_section_all
*Solid Section, elset=section_all, material="SS316L For AM"
,
*End Part
**  
**
** ASSEMBLY
**
*Assembly, name=Assembly
**  
*Instance, name=inst_plate, part=part_plate
*End Instance
**  
*Nset, nset=_PickedSet4, internal, instance=inst_plate
 43,
*Nset, nset=_PickedSet5, internal, instance=inst_plate
 3,
*End Assembly
** 
** MATERIALS
** 
** Material property of AISI Type 316L Steel in Additive Manufacturing
** 
*Material, name="SS316L For AM"
*Conductivity
  14.,  20.
  16., 100.
  17., 200.
  19., 400.
 21.5, 600.
  24., 800.
 26.5,1000.
  29.,1200.
  31.,1375.
  29.,1400.
  29.,1723.
  29.,3000.
*Density
7980.,  20.
7950., 100.
7920., 200.
7860., 400.
7800., 600.
7740., 800.
7680.,1000.
7620.,1200.
7580.,1375.
7450.,1400.
7300.,1723.
7200.,3000.
*Elastic
 2.08e+11,  0.3,  20.
 2.02e+11,  0.3, 100.
 1.94e+11,  0.3, 200.
 1.78e+11,  0.3, 400.
 1.62e+11,  0.3, 600.
 1.42e+11,  0.3, 800.
 1.12e+11,  0.3,1000.
  7.5e+10,  0.3,1200.
  1.5e+10,  0.3,1375.
    1e+08,  0.3,1400.
    1e+07,  0.3,1723.
    1e+06,  0.3,3000.
*Expansion
 1.48e-05,  20.
  1.6e-05, 100.
 1.68e-05, 200.
 1.78e-05, 400.
 1.87e-05, 600.
 1.96e-05, 800.
 2.02e-05,1000.
 2.08e-05,1200.
 2.15e-05,1375.
  2.2e-05,1400.
  2.2e-05,1723.
  2.2e-05,3000.
*Latent Heat
256000.,1375.,1400.
*Plastic
 5.8e+08,   0.,  20.
 5.3e+08,   0., 100.
 4.8e+08,   0., 200.
 4.1e+08,   0., 400.
 3.5e+08,   0., 600.
 2.1e+08,   0., 800.
   9e+07,   0.,1000.
   3e+07,   0.,1200.
   2e+06,   0.,1375.
  10000.,   0.,1400.
   5000.,   0.,1723.
   1000.,   0.,3000.
*Specific Heat
450.,  20.
480., 100.
505., 200.
540., 400.
570., 600.
600., 800.
635.,1000.
670.,1200.
700.,1375.
750.,1400.
760.,1723.
800.,3000.
** 
** PHYSICAL CONSTANTS
** 
*Physical Constants, absolute zero=-173., stefan boltzmann=5.67e-08
** 
** BOUNDARY CONDITIONS
** 
** Name: bc_point_xy Type: Displacement/Rotation
*Boundary
_PickedSet4, 1, 1
_PickedSet4, 2, 2
** Name: bc_point_y Type: Displacement/Rotation
*Boundary
_PickedSet5, 2, 2
** 
** PREDEFINED FIELDS
** 
** Name: predefined_temperature_all   Type: Temperature
*Initial Conditions, type=TEMPERATURE
inst_plate.section_all, 20.
** ----------------------------------------------------------------
** 
** STEP: step_scan_00
** 
*Step, name=step_scan_00, nlgeom=YES, inc=999999
*Coupled Temperature-displacement, creep=none, deltmx=400.
0.2, 0.2, 2e-06, 0.2
** 
** LOADS
** 
** Name: load_body_hflux_00   Type: Body heat flux
*Dflux
inst_plate.set_body_heat_01, BF, 8e+10
** 
** INTERACTIONS
** 
** Interaction: film_external_cooling
*Sfilm
inst_plate.surf_external_all, F, 20., 46.3
** Interaction: rad_external_ambient
*Sradiate
inst_plate.surf_external_all, R, 20., 0.285
** 
** OUTPUT REQUESTS
** 
*Restart, write, frequency=0
** 
** FIELD OUTPUT: F-Output-1
** 
*Output, field
*Node Output
NT, RF, U
*Element Output, directions=YES
HFL, PEEQ, S
** 
** HISTORY OUTPUT: H-Output-1
** 
*Output, history
*Energy Output
ALLAE, ALLIE, ALLKE, ALLPD, ALLSD, ALLSE, ALLWK, ETOTAL
*End Step
** ----------------------------------------------------------------
** 
** STEP: step_cool_00
** 
*Step, name=step_cool_00, nlgeom=YES, inc=999999
*Coupled Temperature-displacement, creep=none, deltmx=400.
0.01, 3.4, 3.4e-30, 0.2
** 
** LOADS
** 
** Name: load_body_hflux_00   Type: Body heat flux
*Dflux, op=NEW
** 
** OUTPUT REQUESTS
** 
*Restart, write, frequency=0
** 
** FIELD OUTPUT: F-Output-1
** 
*Output, field
*Node Output
NT, RF, U
*Element Output, directions=YES
HFL, PEEQ, S
** 
** HISTORY OUTPUT: H-Output-1
** 
*Output, history
*Energy Output
ALLAE, ALLIE, ALLKE, ALLPD, ALLSD, ALLSE, ALLWK, ETOTAL
*End Step
** ----------------------------------------------------------------
** 
** STEP: step_scan_01
** 
*Step, name=step_scan_01, nlgeom=YES, inc=999999
*Coupled Temperature-displacement, creep=none, deltmx=400.
0.2, 0.2, 2e-06, 0.2
** 
** LOADS
** 
** Name: load_body_hflux_01   Type: Body heat flux
*Dflux
inst_plate.set_body_heat_11, BF, 8e+10
** 
** OUTPUT REQUESTS
** 
*Restart, write, frequency=0
** 
** FIELD OUTPUT: F-Output-1
** 
*Output, field
*Node Output
NT, RF, U
*Element Output, directions=YES
HFL, PEEQ, S
** 
** HISTORY OUTPUT: H-Output-1
** 
*Output, history
*Energy Output
ALLAE, ALLIE, ALLKE, ALLPD, ALLSD, ALLSE, ALLWK, ETOTAL
*End Step
** ----------------------------------------------------------------
** 
** STEP: step_cool_01
** 
*Step, name=step_cool_01, nlgeom=YES, inc=999999
*Coupled Temperature-displacement, creep=none, deltmx=400.
0.01, 3.4, 3.4e-30, 0.2
** 
** LOADS
** 
** Name: load_body_hflux_01   Type: Body heat flux
*Dflux, op=NEW
** 
** OUTPUT REQUESTS
** 
*Restart, write, frequency=0
** 
** FIELD OUTPUT: F-Output-1
** 
*Output, field
*Node Output
NT, RF, U
*Element Output, directions=YES
HFL, PEEQ, S
** 
** HISTORY OUTPUT: H-Output-1
** 
*Output, history
*Energy Output
ALLAE, ALLIE, ALLKE, ALLPD, ALLSD, ALLSE, ALLWK, ETOTAL
*End Step
** ----------------------------------------------------------------
** 
** STEP: step_scan_02
** 
*Step, name=step_scan_02, nlgeom=YES, inc=999999
*Coupled Temperature-displacement, creep=none, deltmx=400.
0.2, 0.2, 2e-06, 0.2
** 
** LOADS
** 
** Name: load_body_hflux_02   Type: Body heat flux
*Dflux
inst_plate.set_body_heat_09, BF, 8e+10
** 
** OUTPUT REQUESTS
** 
*Restart, write, frequency=0
** 
** FIELD OUTPUT: F-Output-1
** 
*Output, field
*Node Output
NT, RF, U
*Element Output, directions=YES
HFL, PEEQ, S
** 
** HISTORY OUTPUT: H-Output-1
** 
*Output, history
*Energy Output
ALLAE, ALLIE, ALLKE, ALLPD, ALLSD, ALLSE, ALLWK, ETOTAL
*End Step
** ----------------------------------------------------------------
** 
** STEP: step_cool_02
** 
*Step, name=step_cool_02, nlgeom=YES, inc=999999
*Coupled Temperature-displacement, creep=none, deltmx=400.
0.01, 3.4, 3.4e-30, 0.2
** 
** LOADS
** 
** Name: load_body_hflux_02   Type: Body heat flux
*Dflux, op=NEW
** 
** OUTPUT REQUESTS
** 
*Restart, write, frequency=0
** 
** FIELD OUTPUT: F-Output-1
** 
*Output, field
*Node Output
NT, RF, U
*Element Output, directions=YES
HFL, PEEQ, S
** 
** HISTORY OUTPUT: H-Output-1
** 
*Output, history
*Energy Output
ALLAE, ALLIE, ALLKE, ALLPD, ALLSD, ALLSE, ALLWK, ETOTAL
*End Step
** ----------------------------------------------------------------
** 
** STEP: step_scan_03
** 
*Step, name=step_scan_03, nlgeom=YES, inc=999999
*Coupled Temperature-displacement, creep=none, deltmx=400.
0.2, 0.2, 2e-06, 0.2
** 
** LOADS
** 
** Name: load_body_hflux_03   Type: Body heat flux
*Dflux
inst_plate.set_body_heat_07, BF, 8e+10
** 
** OUTPUT REQUESTS
** 
*Restart, write, frequency=0
** 
** FIELD OUTPUT: F-Output-1
** 
*Output, field
*Node Output
NT, RF, U
*Element Output, directions=YES
HFL, PEEQ, S
** 
** HISTORY OUTPUT: H-Output-1
** 
*Output, history
*Energy Output
ALLAE, ALLIE, ALLKE, ALLPD, ALLSD, ALLSE, ALLWK, ETOTAL
*End Step
** ----------------------------------------------------------------
** 
** STEP: step_cool_03
** 
*Step, name=step_cool_03, nlgeom=YES, inc=999999
*Coupled Temperature-displacement, creep=none, deltmx=400.
0.01, 3.4, 3.4e-30, 0.2
** 
** LOADS
** 
** Name: load_body_hflux_03   Type: Body heat flux
*Dflux, op=NEW
** 
** OUTPUT REQUESTS
** 
*Restart, write, frequency=0
** 
** FIELD OUTPUT: F-Output-1
** 
*Output, field
*Node Output
NT, RF, U
*Element Output, directions=YES
HFL, PEEQ, S
** 
** HISTORY OUTPUT: H-Output-1
** 
*Output, history
*Energy Output
ALLAE, ALLIE, ALLKE, ALLPD, ALLSD, ALLSE, ALLWK, ETOTAL
*End Step
** ----------------------------------------------------------------
** 
** STEP: step_scan_04
** 
*Step, name=step_scan_04, nlgeom=YES, inc=999999
*Coupled Temperature-displacement, creep=none, deltmx=400.
0.2, 0.2, 2e-06, 0.2
** 
** LOADS
** 
** Name: load_body_hflux_04   Type: Body heat flux
*Dflux
inst_plate.set_body_heat_05, BF, 8e+10
** 
** OUTPUT REQUESTS
** 
*Restart, write, frequency=0
** 
** FIELD OUTPUT: F-Output-1
** 
*Output, field
*Node Output
NT, RF, U
*Element Output, directions=YES
HFL, PEEQ, S
** 
** HISTORY OUTPUT: H-Output-1
** 
*Output, history
*Energy Output
ALLAE, ALLIE, ALLKE, ALLPD, ALLSD, ALLSE, ALLWK, ETOTAL
*End Step
** ----------------------------------------------------------------
** 
** STEP: step_cool_04
** 
*Step, name=step_cool_04, nlgeom=YES, inc=999999
*Coupled Temperature-displacement, creep=none, deltmx=400.
0.01, 3.4, 3.4e-30, 0.2
** 
** LOADS
** 
** Name: load_body_hflux_04   Type: Body heat flux
*Dflux, op=NEW
** 
** OUTPUT REQUESTS
** 
*Restart, write, frequency=0
** 
** FIELD OUTPUT: F-Output-1
** 
*Output, field
*Node Output
NT, RF, U
*Element Output, directions=YES
HFL, PEEQ, S
** 
** HISTORY OUTPUT: H-Output-1
** 
*Output, history
*Energy Output
ALLAE, ALLIE, ALLKE, ALLPD, ALLSD, ALLSE, ALLWK, ETOTAL
*End Step
** ----------------------------------------------------------------
** 
** STEP: step_scan_05
** 
*Step, name=step_scan_05, nlgeom=YES, inc=999999
*Coupled Temperature-displacement, creep=none, deltmx=400.
0.2, 0.2, 2e-06, 0.2
** 
** LOADS
** 
** Name: load_body_hflux_05   Type: Body heat flux
*Dflux
inst_plate.set_body_heat_03, BF, 8e+10
** 
** OUTPUT REQUESTS
** 
*Restart, write, frequency=0
** 
** FIELD OUTPUT: F-Output-1
** 
*Output, field
*Node Output
NT, RF, U
*Element Output, directions=YES
HFL, PEEQ, S
** 
** HISTORY OUTPUT: H-Output-1
** 
*Output, history
*Energy Output
ALLAE, ALLIE, ALLKE, ALLPD, ALLSD, ALLSE, ALLWK, ETOTAL
*End Step
** ----------------------------------------------------------------
** 
** STEP: step_cool_05
** 
*Step, name=step_cool_05, nlgeom=YES, inc=999999
*Coupled Temperature-displacement, creep=none, deltmx=400.
0.01, 3.4, 3.4e-30, 0.2
** 
** LOADS
** 
** Name: load_body_hflux_05   Type: Body heat flux
*Dflux, op=NEW
** 
** OUTPUT REQUESTS
** 
*Restart, write, frequency=0
** 
** FIELD OUTPUT: F-Output-1
** 
*Output, field
*Node Output
NT, RF, U
*Element Output, directions=YES
HFL, PEEQ, S
** 
** HISTORY OUTPUT: H-Output-1
** 
*Output, history
*Energy Output
ALLAE, ALLIE, ALLKE, ALLPD, ALLSD, ALLSE, ALLWK, ETOTAL
*End Step
** ----------------------------------------------------------------
** 
** STEP: step_scan_06
** 
*Step, name=step_scan_06, nlgeom=YES, inc=999999
*Coupled Temperature-displacement, creep=none, deltmx=400.
0.2, 0.2, 2e-06, 0.2
** 
** LOADS
** 
** Name: load_body_hflux_06   Type: Body heat flux
*Dflux
inst_plate.set_body_heat_00, BF, 8e+10
** 
** OUTPUT REQUESTS
** 
*Restart, write, frequency=0
** 
** FIELD OUTPUT: F-Output-1
** 
*Output, field
*Node Output
NT, RF, U
*Element Output, directions=YES
HFL, PEEQ, S
** 
** HISTORY OUTPUT: H-Output-1
** 
*Output, history
*Energy Output
ALLAE, ALLIE, ALLKE, ALLPD, ALLSD, ALLSE, ALLWK, ETOTAL
*End Step
** ----------------------------------------------------------------
** 
** STEP: step_cool_06
** 
*Step, name=step_cool_06, nlgeom=YES, inc=999999
*Coupled Temperature-displacement, creep=none, deltmx=400.
0.01, 3.4, 3.4e-30, 0.2
** 
** LOADS
** 
** Name: load_body_hflux_06   Type: Body heat flux
*Dflux, op=NEW
** 
** OUTPUT REQUESTS
** 
*Restart, write, frequency=0
** 
** FIELD OUTPUT: F-Output-1
** 
*Output, field
*Node Output
NT, RF, U
*Element Output, directions=YES
HFL, PEEQ, S
** 
** HISTORY OUTPUT: H-Output-1
** 
*Output, history
*Energy Output
ALLAE, ALLIE, ALLKE, ALLPD, ALLSD, ALLSE, ALLWK, ETOTAL
*End Step
** ----------------------------------------------------------------
** 
** STEP: step_scan_07
** 
*Step, name=step_scan_07, nlgeom=YES, inc=999999
*Coupled Temperature-displacement, creep=none, deltmx=400.
0.2, 0.2, 2e-06, 0.2
** 
** LOADS
** 
** Name: load_body_hflux_07   Type: Body heat flux
*Dflux
inst_plate.set_body_heat_02, BF, 8e+10
** 
** OUTPUT REQUESTS
** 
*Restart, write, frequency=0
** 
** FIELD OUTPUT: F-Output-1
** 
*Output, field
*Node Output
NT, RF, U
*Element Output, directions=YES
HFL, PEEQ, S
** 
** HISTORY OUTPUT: H-Output-1
** 
*Output, history
*Energy Output
ALLAE, ALLIE, ALLKE, ALLPD, ALLSD, ALLSE, ALLWK, ETOTAL
*End Step
** ----------------------------------------------------------------
** 
** STEP: step_cool_07
** 
*Step, name=step_cool_07, nlgeom=YES, inc=999999
*Coupled Temperature-displacement, creep=none, deltmx=400.
0.01, 3.4, 3.4e-30, 0.2
** 
** LOADS
** 
** Name: load_body_hflux_07   Type: Body heat flux
*Dflux, op=NEW
** 
** OUTPUT REQUESTS
** 
*Restart, write, frequency=0
** 
** FIELD OUTPUT: F-Output-1
** 
*Output, field
*Node Output
NT, RF, U
*Element Output, directions=YES
HFL, PEEQ, S
** 
** HISTORY OUTPUT: H-Output-1
** 
*Output, history
*Energy Output
ALLAE, ALLIE, ALLKE, ALLPD, ALLSD, ALLSE, ALLWK, ETOTAL
*End Step
** ----------------------------------------------------------------
** 
** STEP: step_scan_08
** 
*Step, name=step_scan_08, nlgeom=YES, inc=999999
*Coupled Temperature-displacement, creep=none, deltmx=400.
0.2, 0.2, 2e-06, 0.2
** 
** LOADS
** 
** Name: load_body_hflux_08   Type: Body heat flux
*Dflux
inst_plate.set_body_heat_04, BF, 8e+10
** 
** OUTPUT REQUESTS
** 
*Restart, write, frequency=0
** 
** FIELD OUTPUT: F-Output-1
** 
*Output, field
*Node Output
NT, RF, U
*Element Output, directions=YES
HFL, PEEQ, S
** 
** HISTORY OUTPUT: H-Output-1
** 
*Output, history
*Energy Output
ALLAE, ALLIE, ALLKE, ALLPD, ALLSD, ALLSE, ALLWK, ETOTAL
*End Step
** ----------------------------------------------------------------
** 
** STEP: step_cool_08
** 
*Step, name=step_cool_08, nlgeom=YES, inc=999999
*Coupled Temperature-displacement, creep=none, deltmx=400.
0.01, 3.4, 3.4e-30, 0.2
** 
** LOADS
** 
** Name: load_body_hflux_08   Type: Body heat flux
*Dflux, op=NEW
** 
** OUTPUT REQUESTS
** 
*Restart, write, frequency=0
** 
** FIELD OUTPUT: F-Output-1
** 
*Output, field
*Node Output
NT, RF, U
*Element Output, directions=YES
HFL, PEEQ, S
** 
** HISTORY OUTPUT: H-Output-1
** 
*Output, history
*Energy Output
ALLAE, ALLIE, ALLKE, ALLPD, ALLSD, ALLSE, ALLWK, ETOTAL
*End Step
** ----------------------------------------------------------------
** 
** STEP: step_scan_09
** 
*Step, name=step_scan_09, nlgeom=YES, inc=999999
*Coupled Temperature-displacement, creep=none, deltmx=400.
0.2, 0.2, 2e-06, 0.2
** 
** LOADS
** 
** Name: load_body_hflux_09   Type: Body heat flux
*Dflux
inst_plate.set_body_heat_06, BF, 8e+10
** 
** OUTPUT REQUESTS
** 
*Restart, write, frequency=0
** 
** FIELD OUTPUT: F-Output-1
** 
*Output, field
*Node Output
NT, RF, U
*Element Output, directions=YES
HFL, PEEQ, S
** 
** HISTORY OUTPUT: H-Output-1
** 
*Output, history
*Energy Output
ALLAE, ALLIE, ALLKE, ALLPD, ALLSD, ALLSE, ALLWK, ETOTAL
*End Step
** ----------------------------------------------------------------
** 
** STEP: step_cool_09
** 
*Step, name=step_cool_09, nlgeom=YES, inc=999999
*Coupled Temperature-displacement, creep=none, deltmx=400.
0.01, 3.4, 3.4e-30, 0.2
** 
** LOADS
** 
** Name: load_body_hflux_09   Type: Body heat flux
*Dflux, op=NEW
** 
** OUTPUT REQUESTS
** 
*Restart, write, frequency=0
** 
** FIELD OUTPUT: F-Output-1
** 
*Output, field
*Node Output
NT, RF, U
*Element Output, directions=YES
HFL, PEEQ, S
** 
** HISTORY OUTPUT: H-Output-1
** 
*Output, history
*Energy Output
ALLAE, ALLIE, ALLKE, ALLPD, ALLSD, ALLSE, ALLWK, ETOTAL
*End Step
** ----------------------------------------------------------------
** 
** STEP: step_scan_10
** 
*Step, name=step_scan_10, nlgeom=YES, inc=999999
*Coupled Temperature-displacement, creep=none, deltmx=400.
0.2, 0.2, 2e-06, 0.2
** 
** LOADS
** 
** Name: load_body_hflux_10   Type: Body heat flux
*Dflux
inst_plate.set_body_heat_08, BF, 8e+10
** 
** OUTPUT REQUESTS
** 
*Restart, write, frequency=0
** 
** FIELD OUTPUT: F-Output-1
** 
*Output, field
*Node Output
NT, RF, U
*Element Output, directions=YES
HFL, PEEQ, S
** 
** HISTORY OUTPUT: H-Output-1
** 
*Output, history
*Energy Output
ALLAE, ALLIE, ALLKE, ALLPD, ALLSD, ALLSE, ALLWK, ETOTAL
*End Step
** ----------------------------------------------------------------
** 
** STEP: step_cool_10
** 
*Step, name=step_cool_10, nlgeom=YES, inc=999999
*Coupled Temperature-displacement, creep=none, deltmx=400.
0.01, 3.4, 3.4e-30, 0.2
** 
** LOADS
** 
** Name: load_body_hflux_10   Type: Body heat flux
*Dflux, op=NEW
** 
** OUTPUT REQUESTS
** 
*Restart, write, frequency=0
** 
** FIELD OUTPUT: F-Output-1
** 
*Output, field
*Node Output
NT, RF, U
*Element Output, directions=YES
HFL, PEEQ, S
** 
** HISTORY OUTPUT: H-Output-1
** 
*Output, history
*Energy Output
ALLAE, ALLIE, ALLKE, ALLPD, ALLSD, ALLSE, ALLWK, ETOTAL
*End Step
** ----------------------------------------------------------------
** 
** STEP: step_scan_11
** 
*Step, name=step_scan_11, nlgeom=YES, inc=999999
*Coupled Temperature-displacement, creep=none, deltmx=400.
0.2, 0.2, 2e-06, 0.2
** 
** LOADS
** 
** Name: load_body_hflux_11   Type: Body heat flux
*Dflux
inst_plate.set_body_heat_10, BF, 8e+10
** 
** OUTPUT REQUESTS
** 
*Restart, write, frequency=0
** 
** FIELD OUTPUT: F-Output-1
** 
*Output, field
*Node Output
NT, RF, U
*Element Output, directions=YES
HFL, PEEQ, S
** 
** HISTORY OUTPUT: H-Output-1
** 
*Output, history
*Energy Output
ALLAE, ALLIE, ALLKE, ALLPD, ALLSD, ALLSE, ALLWK, ETOTAL
*End Step
** ----------------------------------------------------------------
** 
** STEP: step_cool_11
** 
*Step, name=step_cool_11, nlgeom=YES, inc=999999
*Coupled Temperature-displacement, creep=none, deltmx=400.
0.01, 3.4, 3.4e-30, 0.2
** 
** LOADS
** 
** Name: load_body_hflux_11   Type: Body heat flux
*Dflux, op=NEW
** 
** OUTPUT REQUESTS
** 
*Restart, write, frequency=0
** 
** FIELD OUTPUT: F-Output-1
** 
*Output, field
*Node Output
NT, RF, U
*Element Output, directions=YES
HFL, PEEQ, S
** 
** HISTORY OUTPUT: H-Output-1
** 
*Output, history
*Energy Output
ALLAE, ALLIE, ALLKE, ALLPD, ALLSD, ALLSE, ALLWK, ETOTAL
*End Step
** ----------------------------------------------------------------
** 
** STEP: step_final_cooling
** 
*Step, name=step_final_cooling, nlgeom=YES, inc=999999
*Coupled Temperature-displacement, creep=none, deltmx=400.
0.01, 1200., 3.4e-30, 60.
** 
** OUTPUT REQUESTS
** 
*Restart, write, frequency=0
** 
** FIELD OUTPUT: F-Output-1
** 
*Output, field
*Node Output
NT, RF, U
*Element Output, directions=YES
HFL, PEEQ, S
** 
** HISTORY OUTPUT: H-Output-1
** 
*Output, history
*Energy Output
ALLAE, ALLIE, ALLKE, ALLPD, ALLSD, ALLSE, ALLWK, ETOTAL
*End Step
