*Heading
** Job name: J2D_S3R24L64_N40_B21_sentinel_control Model name: Model-1
** Generated by: Abaqus/CAE 2024
*Preprint, echo=NO, model=NO, history=NO, contact=NO
**
** PARTS
**
*Part, name=part_plate
*Node
      1, 0.0820000023, 0.00200000009
      2, 0.0820000023,           0.
      3, 0.0839999989,           0.
      4, 0.0839999989, 0.00200000009
      5, 0.0820000023, 0.00300000003
      6, 0.0839999989, 0.00300000003
      7, 0.0799999982, 0.00200000009
      8, 0.0799999982,           0.
      9, 0.0799999982, 0.00300000003
     10, 0.0780000016, 0.00200000009
     11, 0.0780000016,           0.
     12, 0.0780000016, 0.00300000003
     13, 0.0759999976, 0.00200000009
     14, 0.0759999976,           0.
     15, 0.0759999976, 0.00300000003
     16,  0.074000001, 0.00200000009
     17,  0.074000001,           0.
     18,  0.074000001, 0.00300000003
     19, 0.0719999969, 0.00200000009
     20, 0.0719999969,           0.
     21, 0.0719999969, 0.00300000003
     22, 0.0700000003, 0.00200000009
     23, 0.0700000003,           0.
     24, 0.0700000003, 0.00300000003
     25, 0.0680000037, 0.00200000009
     26, 0.0680000037,           0.
     27, 0.0680000037, 0.00300000003
     28, 0.0659999996, 0.00200000009
     29, 0.0659999996,           0.
     30, 0.0659999996, 0.00300000003
     31,  0.064000003, 0.00200000009
     32,  0.064000003,           0.
     33,  0.064000003, 0.00300000003
     34,  0.061999999, 0.00200000009
     35,  0.061999999,           0.
     36,  0.061999999, 0.00300000003
     37, 0.0599999987, 0.00200000009
     38, 0.0599999987,           0.
     39, 0.0599999987, 0.00300000003
     40, 0.0579999983, 0.00200000009
     41, 0.0579999983,           0.
     42, 0.0579999983, 0.00300000003
     43, 0.0560000017, 0.00200000009
     44, 0.0560000017,           0.
     45, 0.0560000017, 0.00300000003
     46, 0.0540000014, 0.00200000009
     47, 0.0540000014,           0.
     48, 0.0540000014, 0.00300000003
     49, 0.0520000011, 0.00200000009
     50, 0.0520000011,           0.
     51, 0.0520000011, 0.00300000003
     52, 0.0500000007, 0.00200000009
     53, 0.0500000007,           0.
     54, 0.0500000007, 0.00300000003
     55, 0.0480000004, 0.00200000009
     56, 0.0480000004,           0.
     57, 0.0480000004, 0.00300000003
     58, 0.0460000001, 0.00200000009
     59, 0.0460000001,           0.
     60, 0.0460000001, 0.00300000003
     61, 0.0439999998, 0.00200000009
     62, 0.0439999998,           0.
     63, 0.0439999998, 0.00300000003
     64, 0.0419999994, 0.00200000009
     65, 0.0419999994,           0.
     66, 0.0419999994, 0.00300000003
     67, 0.0399999991, 0.00200000009
     68, 0.0399999991,           0.
     69, 0.0399999991, 0.00300000003
     70, 0.0379999988, 0.00200000009
     71, 0.0379999988,           0.
     72, 0.0379999988, 0.00300000003
     73, 0.0359999985, 0.00200000009
     74, 0.0359999985,           0.
     75, 0.0359999985, 0.00300000003
     76, 0.0340000018, 0.00200000009
     77, 0.0340000018,           0.
     78, 0.0340000018, 0.00300000003
     79, 0.0320000015, 0.00200000009
     80, 0.0320000015,           0.
     81, 0.0320000015, 0.00300000003
     82, 0.0299999993, 0.00200000009
     83, 0.0299999993,           0.
     84, 0.0299999993, 0.00300000003
     85, 0.0280000009, 0.00200000009
     86, 0.0280000009,           0.
     87, 0.0280000009, 0.00300000003
     88, 0.0260000005, 0.00200000009
     89, 0.0260000005,           0.
     90, 0.0260000005, 0.00300000003
     91, 0.0240000002, 0.00200000009
     92, 0.0240000002,           0.
     93, 0.0240000002, 0.00300000003
     94, 0.0219999999, 0.00200000009
     95, 0.0219999999,           0.
     96, 0.0219999999, 0.00300000003
     97, 0.0199999996, 0.00200000009
     98, 0.0199999996,           0.
     99, 0.0199999996, 0.00300000003
    100, 0.0179999992, 0.00200000009
    101, 0.0179999992,           0.
    102, 0.0179999992, 0.00300000003
    103, 0.0160000008, 0.00200000009
    104, 0.0160000008,           0.
    105, 0.0160000008, 0.00300000003
    106, 0.0140000004, 0.00200000009
    107, 0.0140000004,           0.
    108, 0.0140000004, 0.00300000003
    109, 0.0120000001, 0.00200000009
    110, 0.0120000001,           0.
    111, 0.0120000001, 0.00300000003
    112, 0.00999999978, 0.00200000009
    113, 0.00999999978,           0.
    114, 0.00999999978, 0.00300000003
    115, 0.00800000038, 0.00200000009
    116, 0.00800000038,           0.
    117, 0.00800000038, 0.00300000003
    118, 0.00600000005, 0.00200000009
    119, 0.00600000005,           0.
    120, 0.00600000005, 0.00300000003
    121, 0.00400000019, 0.00200000009
    122, 0.00400000019,           0.
    123, 0.00400000019, 0.00300000003
    124, 0.00200000009, 0.00200000009
    125, 0.00200000009,           0.
    126,           0., 0.00200000009
    127,           0.,           0.
    128, 0.00200000009, 0.00300000003
    129,           0., 0.00300000003
    130, 0.0820000023, 0.00150000001
    131, 0.0820000023, 0.00100000005
    132, 0.0820000023, 0.000500000024
    133, 0.0825000033,           0.
    134, 0.0829999968,           0.
    135, 0.0834999979,           0.
    136, 0.0839999989, 0.000500000024
    137, 0.0839999989, 0.00100000005
    138, 0.0839999989, 0.00150000001
    139, 0.0834999979, 0.00200000009
    140, 0.0829999968, 0.00200000009
    141, 0.0825000033, 0.00200000009
    142, 0.0820000023, 0.00249999994
    143, 0.0839999989, 0.00249999994
    144, 0.0834999979, 0.00300000003
    145, 0.0829999968, 0.00300000003
    146, 0.0825000033, 0.00300000003
    147, 0.0799999982, 0.00150000001
    148, 0.0799999982, 0.00100000005
    149, 0.0799999982, 0.000500000024
    150, 0.0804999992,           0.
    151, 0.0810000002,           0.
    152, 0.0815000013,           0.
    153, 0.0815000013, 0.00200000009
    154, 0.0810000002, 0.00200000009
    155, 0.0804999992, 0.00200000009
    156, 0.0799999982, 0.00249999994
    157, 0.0815000013, 0.00300000003
    158, 0.0810000002, 0.00300000003
    159, 0.0804999992, 0.00300000003
    160, 0.0794999972, 0.00200000009
    161, 0.0790000036, 0.00200000009
    162, 0.0785000026, 0.00200000009
    163, 0.0780000016, 0.00150000001
    164, 0.0780000016, 0.00100000005
    165, 0.0780000016, 0.000500000024
    166, 0.0785000026,           0.
    167, 0.0790000036,           0.
    168, 0.0794999972,           0.
    169, 0.0780000016, 0.00249999994
    170, 0.0794999972, 0.00300000003
    171, 0.0790000036, 0.00300000003
    172, 0.0785000026, 0.00300000003
    173, 0.0759999976, 0.00150000001
    174, 0.0759999976, 0.00100000005
    175, 0.0759999976, 0.000500000024
    176, 0.0764999986,           0.
    177, 0.0769999996,           0.
    178, 0.0775000006,           0.
    179, 0.0775000006, 0.00200000009
    180, 0.0769999996, 0.00200000009
    181, 0.0764999986, 0.00200000009
    182, 0.0759999976, 0.00249999994
    183, 0.0775000006, 0.00300000003
    184, 0.0769999996, 0.00300000003
    185, 0.0764999986, 0.00300000003
    186,  0.074000001, 0.00150000001
    187,  0.074000001, 0.00100000005
    188,  0.074000001, 0.000500000024
    189,  0.074500002,           0.
    190,  0.075000003,           0.
    191, 0.0754999965,           0.
    192, 0.0754999965, 0.00200000009
    193,  0.075000003, 0.00200000009
    194,  0.074500002, 0.00200000009
    195,  0.074000001, 0.00249999994
    196, 0.0754999965, 0.00300000003
    197,  0.075000003, 0.00300000003
    198,  0.074500002, 0.00300000003
    199, 0.0719999969, 0.00150000001
    200, 0.0719999969, 0.00100000005
    201, 0.0719999969, 0.000500000024
    202, 0.0724999979,           0.
    203, 0.0729999989,           0.
    204, 0.0734999999,           0.
    205, 0.0734999999, 0.00200000009
    206, 0.0729999989, 0.00200000009
    207, 0.0724999979, 0.00200000009
    208, 0.0719999969, 0.00249999994
    209, 0.0734999999, 0.00300000003
    210, 0.0729999989, 0.00300000003
    211, 0.0724999979, 0.00300000003
    212, 0.0700000003, 0.00150000001
    213, 0.0700000003, 0.00100000005
    214, 0.0700000003, 0.000500000024
    215, 0.0705000013,           0.
    216, 0.0710000023,           0.
    217, 0.0715000033,           0.
    218, 0.0715000033, 0.00200000009
    219, 0.0710000023, 0.00200000009
    220, 0.0705000013, 0.00200000009
    221, 0.0700000003, 0.00249999994
    222, 0.0715000033, 0.00300000003
    223, 0.0710000023, 0.00300000003
    224, 0.0705000013, 0.00300000003
    225, 0.0680000037, 0.00150000001
    226, 0.0680000037, 0.00100000005
    227, 0.0680000037, 0.000500000024
    228, 0.0684999973,           0.
    229, 0.0689999983,           0.
    230, 0.0694999993,           0.
    231, 0.0694999993, 0.00200000009
    232, 0.0689999983, 0.00200000009
    233, 0.0684999973, 0.00200000009
    234, 0.0680000037, 0.00249999994
    235, 0.0694999993, 0.00300000003
    236, 0.0689999983, 0.00300000003
    237, 0.0684999973, 0.00300000003
    238, 0.0659999996, 0.00150000001
    239, 0.0659999996, 0.00100000005
    240, 0.0659999996, 0.000500000024
    241, 0.0665000007,           0.
    242, 0.0670000017,           0.
    243, 0.0675000027,           0.
    244, 0.0675000027, 0.00200000009
    245, 0.0670000017, 0.00200000009
    246, 0.0665000007, 0.00200000009
    247, 0.0659999996, 0.00249999994
    248, 0.0675000027, 0.00300000003
    249, 0.0670000017, 0.00300000003
    250, 0.0665000007, 0.00300000003
    251,  0.064000003, 0.00150000001
    252,  0.064000003, 0.00100000005
    253,  0.064000003, 0.000500000024
    254, 0.0644999966,           0.
    255, 0.0649999976,           0.
    256, 0.0654999986,           0.
    257, 0.0654999986, 0.00200000009
    258, 0.0649999976, 0.00200000009
    259, 0.0644999966, 0.00200000009
    260,  0.064000003, 0.00249999994
    261, 0.0654999986, 0.00300000003
    262, 0.0649999976, 0.00300000003
    263, 0.0644999966, 0.00300000003
    264,  0.061999999, 0.00150000001
    265,  0.061999999, 0.00100000005
    266,  0.061999999, 0.000500000024
    267,       0.0625,           0.
    268,  0.063000001,           0.
    269,  0.063500002,           0.
    270,  0.063500002, 0.00200000009
    271,  0.063000001, 0.00200000009
    272,       0.0625, 0.00200000009
    273,  0.061999999, 0.00249999994
    274,  0.063500002, 0.00300000003
    275,  0.063000001, 0.00300000003
    276,       0.0625, 0.00300000003
    277, 0.0599999987, 0.00150000001
    278, 0.0599999987, 0.00100000005
    279, 0.0599999987, 0.000500000024
    280, 0.0604999997,           0.
    281, 0.0610000007,           0.
    282, 0.0615000017,           0.
    283, 0.0615000017, 0.00200000009
    284, 0.0610000007, 0.00200000009
    285, 0.0604999997, 0.00200000009
    286, 0.0599999987, 0.00249999994
    287, 0.0615000017, 0.00300000003
    288, 0.0610000007, 0.00300000003
    289, 0.0604999997, 0.00300000003
    290, 0.0579999983, 0.00150000001
    291, 0.0579999983, 0.00100000005
    292, 0.0579999983, 0.000500000024
    293, 0.0584999993,           0.
    294, 0.0590000004,           0.
    295, 0.0595000014,           0.
    296, 0.0595000014, 0.00200000009
    297, 0.0590000004, 0.00200000009
    298, 0.0584999993, 0.00200000009
    299, 0.0579999983, 0.00249999994
    300, 0.0595000014, 0.00300000003
    301, 0.0590000004, 0.00300000003
    302, 0.0584999993, 0.00300000003
    303, 0.0560000017, 0.00150000001
    304, 0.0560000017, 0.00100000005
    305, 0.0560000017, 0.000500000024
    306,  0.056499999,           0.
    307,        0.057,           0.
    308,  0.057500001,           0.
    309,  0.057500001, 0.00200000009
    310,        0.057, 0.00200000009
    311,  0.056499999, 0.00200000009
    312, 0.0560000017, 0.00249999994
    313,  0.057500001, 0.00300000003
    314,        0.057, 0.00300000003
    315,  0.056499999, 0.00300000003
    316, 0.0540000014, 0.00150000001
    317, 0.0540000014, 0.00100000005
    318, 0.0540000014, 0.000500000024
    319, 0.0544999987,           0.
    320, 0.0549999997,           0.
    321, 0.0555000007,           0.
    322, 0.0555000007, 0.00200000009
    323, 0.0549999997, 0.00200000009
    324, 0.0544999987, 0.00200000009
    325, 0.0540000014, 0.00249999994
    326, 0.0555000007, 0.00300000003
    327, 0.0549999997, 0.00300000003
    328, 0.0544999987, 0.00300000003
    329, 0.0520000011, 0.00150000001
    330, 0.0520000011, 0.00100000005
    331, 0.0520000011, 0.000500000024
    332, 0.0524999984,           0.
    333, 0.0529999994,           0.
    334, 0.0535000004,           0.
    335, 0.0535000004, 0.00200000009
    336, 0.0529999994, 0.00200000009
    337, 0.0524999984, 0.00200000009
    338, 0.0520000011, 0.00249999994
    339, 0.0535000004, 0.00300000003
    340, 0.0529999994, 0.00300000003
    341, 0.0524999984, 0.00300000003
    342, 0.0500000007, 0.00150000001
    343, 0.0500000007, 0.00100000005
    344, 0.0500000007, 0.000500000024
    345, 0.0505000018,           0.
    346,  0.050999999,           0.
    347, 0.0515000001,           0.
    348, 0.0515000001, 0.00200000009
    349,  0.050999999, 0.00200000009
    350, 0.0505000018, 0.00200000009
    351, 0.0500000007, 0.00249999994
    352, 0.0515000001, 0.00300000003
    353,  0.050999999, 0.00300000003
    354, 0.0505000018, 0.00300000003
    355, 0.0480000004, 0.00150000001
    356, 0.0480000004, 0.00100000005
    357, 0.0480000004, 0.000500000024
    358, 0.0485000014,           0.
    359, 0.0489999987,           0.
    360, 0.0494999997,           0.
    361, 0.0494999997, 0.00200000009
    362, 0.0489999987, 0.00200000009
    363, 0.0485000014, 0.00200000009
    364, 0.0480000004, 0.00249999994
    365, 0.0494999997, 0.00300000003
    366, 0.0489999987, 0.00300000003
    367, 0.0485000014, 0.00300000003
    368, 0.0460000001, 0.00150000001
    369, 0.0460000001, 0.00100000005
    370, 0.0460000001, 0.000500000024
    371, 0.0465000011,           0.
    372, 0.0469999984,           0.
    373, 0.0474999994,           0.
    374, 0.0474999994, 0.00200000009
    375, 0.0469999984, 0.00200000009
    376, 0.0465000011, 0.00200000009
    377, 0.0460000001, 0.00249999994
    378, 0.0474999994, 0.00300000003
    379, 0.0469999984, 0.00300000003
    380, 0.0465000011, 0.00300000003
    381, 0.0439999998, 0.00150000001
    382, 0.0439999998, 0.00100000005
    383, 0.0439999998, 0.000500000024
    384, 0.0445000008,           0.
    385, 0.0450000018,           0.
    386, 0.0454999991,           0.
    387, 0.0454999991, 0.00200000009
    388, 0.0450000018, 0.00200000009
    389, 0.0445000008, 0.00200000009
    390, 0.0439999998, 0.00249999994
    391, 0.0454999991, 0.00300000003
    392, 0.0450000018, 0.00300000003
    393, 0.0445000008, 0.00300000003
    394, 0.0419999994, 0.00150000001
    395, 0.0419999994, 0.00100000005
    396, 0.0419999994, 0.000500000024
    397, 0.0425000004,           0.
    398, 0.0430000015,           0.
    399, 0.0434999987,           0.
    400, 0.0434999987, 0.00200000009
    401, 0.0430000015, 0.00200000009
    402, 0.0425000004, 0.00200000009
    403, 0.0419999994, 0.00249999994
    404, 0.0434999987, 0.00300000003
    405, 0.0430000015, 0.00300000003
    406, 0.0425000004, 0.00300000003
    407, 0.0399999991, 0.00150000001
    408, 0.0399999991, 0.00100000005
    409, 0.0399999991, 0.000500000024
    410, 0.0405000001,           0.
    411, 0.0410000011,           0.
    412, 0.0414999984,           0.
    413, 0.0414999984, 0.00200000009
    414, 0.0410000011, 0.00200000009
    415, 0.0405000001, 0.00200000009
    416, 0.0399999991, 0.00249999994
    417, 0.0414999984, 0.00300000003
    418, 0.0410000011, 0.00300000003
    419, 0.0405000001, 0.00300000003
    420, 0.0379999988, 0.00150000001
    421, 0.0379999988, 0.00100000005
    422, 0.0379999988, 0.000500000024
    423, 0.0384999998,           0.
    424, 0.0390000008,           0.
    425, 0.0395000018,           0.
    426, 0.0395000018, 0.00200000009
    427, 0.0390000008, 0.00200000009
    428, 0.0384999998, 0.00200000009
    429, 0.0379999988, 0.00249999994
    430, 0.0395000018, 0.00300000003
    431, 0.0390000008, 0.00300000003
    432, 0.0384999998, 0.00300000003
    433, 0.0359999985, 0.00150000001
    434, 0.0359999985, 0.00100000005
    435, 0.0359999985, 0.000500000024
    436, 0.0364999995,           0.
    437, 0.0370000005,           0.
    438, 0.0375000015,           0.
    439, 0.0375000015, 0.00200000009
    440, 0.0370000005, 0.00200000009
    441, 0.0364999995, 0.00200000009
    442, 0.0359999985, 0.00249999994
    443, 0.0375000015, 0.00300000003
    444, 0.0370000005, 0.00300000003
    445, 0.0364999995, 0.00300000003
    446, 0.0340000018, 0.00150000001
    447, 0.0340000018, 0.00100000005
    448, 0.0340000018, 0.000500000024
    449, 0.0344999991,           0.
    450, 0.0350000001,           0.
    451, 0.0355000012,           0.
    452, 0.0355000012, 0.00200000009
    453, 0.0350000001, 0.00200000009
    454, 0.0344999991, 0.00200000009
    455, 0.0340000018, 0.00249999994
    456, 0.0355000012, 0.00300000003
    457, 0.0350000001, 0.00300000003
    458, 0.0344999991, 0.00300000003
    459, 0.0320000015, 0.00150000001
    460, 0.0320000015, 0.00100000005
    461, 0.0320000015, 0.000500000024
    462, 0.0324999988,           0.
    463, 0.0329999998,           0.
    464, 0.0335000008,           0.
    465, 0.0335000008, 0.00200000009
    466, 0.0329999998, 0.00200000009
    467, 0.0324999988, 0.00200000009
    468, 0.0320000015, 0.00249999994
    469, 0.0335000008, 0.00300000003
    470, 0.0329999998, 0.00300000003
    471, 0.0324999988, 0.00300000003
    472, 0.0299999993, 0.00150000001
    473, 0.0299999993, 0.00100000005
    474, 0.0299999993, 0.000500000024
    475, 0.0305000003,           0.
    476, 0.0309999995,           0.
    477, 0.0315000005,           0.
    478, 0.0315000005, 0.00200000009
    479, 0.0309999995, 0.00200000009
    480, 0.0305000003, 0.00200000009
    481, 0.0299999993, 0.00249999994
    482, 0.0315000005, 0.00300000003
    483, 0.0309999995, 0.00300000003
    484, 0.0305000003, 0.00300000003
    485, 0.0280000009, 0.00150000001
    486, 0.0280000009, 0.00100000005
    487, 0.0280000009, 0.000500000024
    488,       0.0285,           0.
    489, 0.0289999992,           0.
    490, 0.0295000002,           0.
    491, 0.0295000002, 0.00200000009
    492, 0.0289999992, 0.00200000009
    493,       0.0285, 0.00200000009
    494, 0.0280000009, 0.00249999994
    495, 0.0295000002, 0.00300000003
    496, 0.0289999992, 0.00300000003
    497,       0.0285, 0.00300000003
    498, 0.0260000005, 0.00150000001
    499, 0.0260000005, 0.00100000005
    500, 0.0260000005, 0.000500000024
    501, 0.0264999997,           0.
    502, 0.0270000007,           0.
    503, 0.0274999999,           0.
    504, 0.0274999999, 0.00200000009
    505, 0.0270000007, 0.00200000009
    506, 0.0264999997, 0.00200000009
    507, 0.0260000005, 0.00249999994
    508, 0.0274999999, 0.00300000003
    509, 0.0270000007, 0.00300000003
    510, 0.0264999997, 0.00300000003
    511, 0.0240000002, 0.00150000001
    512, 0.0240000002, 0.00100000005
    513, 0.0240000002, 0.000500000024
    514, 0.0244999994,           0.
    515, 0.0250000004,           0.
    516, 0.0254999995,           0.
    517, 0.0254999995, 0.00200000009
    518, 0.0250000004, 0.00200000009
    519, 0.0244999994, 0.00200000009
    520, 0.0240000002, 0.00249999994
    521, 0.0254999995, 0.00300000003
    522, 0.0250000004, 0.00300000003
    523, 0.0244999994, 0.00300000003
    524, 0.0219999999, 0.00150000001
    525, 0.0219999999, 0.00100000005
    526, 0.0219999999, 0.000500000024
    527, 0.0225000009,           0.
    528,        0.023,           0.
    529, 0.0234999992,           0.
    530, 0.0234999992, 0.00200000009
    531,        0.023, 0.00200000009
    532, 0.0225000009, 0.00200000009
    533, 0.0219999999, 0.00249999994
    534, 0.0234999992, 0.00300000003
    535,        0.023, 0.00300000003
    536, 0.0225000009, 0.00300000003
    537, 0.0199999996, 0.00150000001
    538, 0.0199999996, 0.00100000005
    539, 0.0199999996, 0.000500000024
    540, 0.0205000006,           0.
    541, 0.0209999997,           0.
    542, 0.0215000007,           0.
    543, 0.0215000007, 0.00200000009
    544, 0.0209999997, 0.00200000009
    545, 0.0205000006, 0.00200000009
    546, 0.0199999996, 0.00249999994
    547, 0.0215000007, 0.00300000003
    548, 0.0209999997, 0.00300000003
    549, 0.0205000006, 0.00300000003
    550, 0.0179999992, 0.00150000001
    551, 0.0179999992, 0.00100000005
    552, 0.0179999992, 0.000500000024
    553, 0.0185000002,           0.
    554, 0.0189999994,           0.
    555, 0.0195000004,           0.
    556, 0.0195000004, 0.00200000009
    557, 0.0189999994, 0.00200000009
    558, 0.0185000002, 0.00200000009
    559, 0.0179999992, 0.00249999994
    560, 0.0195000004, 0.00300000003
    561, 0.0189999994, 0.00300000003
    562, 0.0185000002, 0.00300000003
    563, 0.0160000008, 0.00150000001
    564, 0.0160000008, 0.00100000005
    565, 0.0160000008, 0.000500000024
    566, 0.0164999999,           0.
    567, 0.0170000009,           0.
    568, 0.0175000001,           0.
    569, 0.0175000001, 0.00200000009
    570, 0.0170000009, 0.00200000009
    571, 0.0164999999, 0.00200000009
    572, 0.0160000008, 0.00249999994
    573, 0.0175000001, 0.00300000003
    574, 0.0170000009, 0.00300000003
    575, 0.0164999999, 0.00300000003
    576, 0.0140000004, 0.00150000001
    577, 0.0140000004, 0.00100000005
    578, 0.0140000004, 0.000500000024
    579, 0.0144999996,           0.
    580, 0.0149999997,           0.
    581, 0.0154999997,           0.
    582, 0.0154999997, 0.00200000009
    583, 0.0149999997, 0.00200000009
    584, 0.0144999996, 0.00200000009
    585, 0.0140000004, 0.00249999994
    586, 0.0154999997, 0.00300000003
    587, 0.0149999997, 0.00300000003
    588, 0.0144999996, 0.00300000003
    589, 0.0120000001, 0.00150000001
    590, 0.0120000001, 0.00100000005
    591, 0.0120000001, 0.000500000024
    592, 0.0125000002,           0.
    593, 0.0130000003,           0.
    594, 0.0135000004,           0.
    595, 0.0135000004, 0.00200000009
    596, 0.0130000003, 0.00200000009
    597, 0.0125000002, 0.00200000009
    598, 0.0120000001, 0.00249999994
    599, 0.0135000004, 0.00300000003
    600, 0.0130000003, 0.00300000003
    601, 0.0125000002, 0.00300000003
    602, 0.00999999978, 0.00150000001
    603, 0.00999999978, 0.00100000005
    604, 0.00999999978, 0.000500000024
    605, 0.0104999999,           0.
    606, 0.0109999999,           0.
    607,       0.0115,           0.
    608,       0.0115, 0.00200000009
    609, 0.0109999999, 0.00200000009
    610, 0.0104999999, 0.00200000009
    611, 0.00999999978, 0.00249999994
    612,       0.0115, 0.00300000003
    613, 0.0109999999, 0.00300000003
    614, 0.0104999999, 0.00300000003
    615, 0.00800000038, 0.00150000001
    616, 0.00800000038, 0.00100000005
    617, 0.00800000038, 0.000500000024
    618, 0.00850000046,           0.
    619, 0.00899999961,           0.
    620, 0.00949999969,           0.
    621, 0.00949999969, 0.00200000009
    622, 0.00899999961, 0.00200000009
    623, 0.00850000046, 0.00200000009
    624, 0.00800000038, 0.00249999994
    625, 0.00949999969, 0.00300000003
    626, 0.00899999961, 0.00300000003
    627, 0.00850000046, 0.00300000003
    628, 0.00600000005, 0.00150000001
    629, 0.00600000005, 0.00100000005
    630, 0.00600000005, 0.000500000024
    631, 0.00650000013,           0.
    632, 0.00700000022,           0.
    633, 0.00749999983,           0.
    634, 0.00749999983, 0.00200000009
    635, 0.00700000022, 0.00200000009
    636, 0.00650000013, 0.00200000009
    637, 0.00600000005, 0.00249999994
    638, 0.00749999983, 0.00300000003
    639, 0.00700000022, 0.00300000003
    640, 0.00650000013, 0.00300000003
    641, 0.00400000019, 0.00150000001
    642, 0.00400000019, 0.00100000005
    643, 0.00400000019, 0.000500000024
    644, 0.00449999981,           0.
    645, 0.00499999989,           0.
    646, 0.00549999997,           0.
    647, 0.00549999997, 0.00200000009
    648, 0.00499999989, 0.00200000009
    649, 0.00449999981, 0.00200000009
    650, 0.00400000019, 0.00249999994
    651, 0.00549999997, 0.00300000003
    652, 0.00499999989, 0.00300000003
    653, 0.00449999981, 0.00300000003
    654, 0.00200000009, 0.00150000001
    655, 0.00200000009, 0.00100000005
    656, 0.00200000009, 0.000500000024
    657, 0.00249999994,           0.
    658, 0.00300000003,           0.
    659, 0.00350000011,           0.
    660, 0.00350000011, 0.00200000009
    661, 0.00300000003, 0.00200000009
    662, 0.00249999994, 0.00200000009
    663, 0.00150000001, 0.00200000009
    664, 0.00100000005, 0.00200000009
    665, 0.000500000024, 0.00200000009
    666,           0., 0.00150000001
    667,           0., 0.00100000005
    668,           0., 0.000500000024
    669, 0.000500000024,           0.
    670, 0.00100000005,           0.
    671, 0.00150000001,           0.
    672, 0.00200000009, 0.00249999994
    673, 0.00350000011, 0.00300000003
    674, 0.00300000003, 0.00300000003
    675, 0.00249999994, 0.00300000003
    676, 0.00150000001, 0.00300000003
    677, 0.00100000005, 0.00300000003
    678, 0.000500000024, 0.00300000003
    679,           0., 0.00249999994
    680, 0.0825000033, 0.00150000001
    681, 0.0825000033, 0.00100000005
    682, 0.0825000033, 0.000500000024
    683, 0.0829999968, 0.00150000001
    684, 0.0829999968, 0.00100000005
    685, 0.0829999968, 0.000500000024
    686, 0.0834999979, 0.00150000001
    687, 0.0834999979, 0.00100000005
    688, 0.0834999979, 0.000500000024
    689, 0.0825000033, 0.00249999994
    690, 0.0829999968, 0.00249999994
    691, 0.0834999979, 0.00249999994
    692, 0.0804999992, 0.00150000001
    693, 0.0804999992, 0.00100000005
    694, 0.0804999992, 0.000500000024
    695, 0.0810000002, 0.00150000001
    696, 0.0810000002, 0.00100000005
    697, 0.0810000002, 0.000500000024
    698, 0.0815000013, 0.00150000001
    699, 0.0815000013, 0.00100000005
    700, 0.0815000013, 0.000500000024
    701, 0.0804999992, 0.00249999994
    702, 0.0810000002, 0.00249999994
    703, 0.0815000013, 0.00249999994
    704, 0.0794999972, 0.000500000024
    705, 0.0794999972, 0.00100000005
    706, 0.0794999972, 0.00150000001
    707, 0.0790000036, 0.000500000024
    708, 0.0790000036, 0.00100000005
    709, 0.0790000036, 0.00150000001
    710, 0.0785000026, 0.000500000024
    711, 0.0785000026, 0.00100000005
    712, 0.0785000026, 0.00150000001
    713, 0.0785000026, 0.00249999994
    714, 0.0790000036, 0.00249999994
    715, 0.0794999972, 0.00249999994
    716, 0.0764999986, 0.00150000001
    717, 0.0764999986, 0.00100000005
    718, 0.0764999986, 0.000500000024
    719, 0.0769999996, 0.00150000001
    720, 0.0769999996, 0.00100000005
    721, 0.0769999996, 0.000500000024
    722, 0.0775000006, 0.00150000001
    723, 0.0775000006, 0.00100000005
    724, 0.0775000006, 0.000500000024
    725, 0.0764999986, 0.00249999994
    726, 0.0769999996, 0.00249999994
    727, 0.0775000006, 0.00249999994
    728,  0.074500002, 0.00150000001
    729,  0.074500002, 0.00100000005
    730,  0.074500002, 0.000500000024
    731,  0.075000003, 0.00150000001
    732,  0.075000003, 0.00100000005
    733,  0.075000003, 0.000500000024
    734, 0.0754999965, 0.00150000001
    735, 0.0754999965, 0.00100000005
    736, 0.0754999965, 0.000500000024
    737,  0.074500002, 0.00249999994
    738,  0.075000003, 0.00249999994
    739, 0.0754999965, 0.00249999994
    740, 0.0724999979, 0.00150000001
    741, 0.0724999979, 0.00100000005
    742, 0.0724999979, 0.000500000024
    743, 0.0729999989, 0.00150000001
    744, 0.0729999989, 0.00100000005
    745, 0.0729999989, 0.000500000024
    746, 0.0734999999, 0.00150000001
    747, 0.0734999999, 0.00100000005
    748, 0.0734999999, 0.000500000024
    749, 0.0724999979, 0.00249999994
    750, 0.0729999989, 0.00249999994
    751, 0.0734999999, 0.00249999994
    752, 0.0705000013, 0.00150000001
    753, 0.0705000013, 0.00100000005
    754, 0.0705000013, 0.000500000024
    755, 0.0710000023, 0.00150000001
    756, 0.0710000023, 0.00100000005
    757, 0.0710000023, 0.000500000024
    758, 0.0715000033, 0.00150000001
    759, 0.0715000033, 0.00100000005
    760, 0.0715000033, 0.000500000024
    761, 0.0705000013, 0.00249999994
    762, 0.0710000023, 0.00249999994
    763, 0.0715000033, 0.00249999994
    764, 0.0684999973, 0.00150000001
    765, 0.0684999973, 0.00100000005
    766, 0.0684999973, 0.000500000024
    767, 0.0689999983, 0.00150000001
    768, 0.0689999983, 0.00100000005
    769, 0.0689999983, 0.000500000024
    770, 0.0694999993, 0.00150000001
    771, 0.0694999993, 0.00100000005
    772, 0.0694999993, 0.000500000024
    773, 0.0684999973, 0.00249999994
    774, 0.0689999983, 0.00249999994
    775, 0.0694999993, 0.00249999994
    776, 0.0665000007, 0.00150000001
    777, 0.0665000007, 0.00100000005
    778, 0.0665000007, 0.000500000024
    779, 0.0670000017, 0.00150000001
    780, 0.0670000017, 0.00100000005
    781, 0.0670000017, 0.000500000024
    782, 0.0675000027, 0.00150000001
    783, 0.0675000027, 0.00100000005
    784, 0.0675000027, 0.000500000024
    785, 0.0665000007, 0.00249999994
    786, 0.0670000017, 0.00249999994
    787, 0.0675000027, 0.00249999994
    788, 0.0644999966, 0.00150000001
    789, 0.0644999966, 0.00100000005
    790, 0.0644999966, 0.000500000024
    791, 0.0649999976, 0.00150000001
    792, 0.0649999976, 0.00100000005
    793, 0.0649999976, 0.000500000024
    794, 0.0654999986, 0.00150000001
    795, 0.0654999986, 0.00100000005
    796, 0.0654999986, 0.000500000024
    797, 0.0644999966, 0.00249999994
    798, 0.0649999976, 0.00249999994
    799, 0.0654999986, 0.00249999994
    800,       0.0625, 0.00150000001
    801,       0.0625, 0.00100000005
    802,       0.0625, 0.000500000024
    803,  0.063000001, 0.00150000001
    804,  0.063000001, 0.00100000005
    805,  0.063000001, 0.000500000024
    806,  0.063500002, 0.00150000001
    807,  0.063500002, 0.00100000005
    808,  0.063500002, 0.000500000024
    809,       0.0625, 0.00249999994
    810,  0.063000001, 0.00249999994
    811,  0.063500002, 0.00249999994
    812, 0.0604999997, 0.00150000001
    813, 0.0604999997, 0.00100000005
    814, 0.0604999997, 0.000500000024
    815, 0.0610000007, 0.00150000001
    816, 0.0610000007, 0.00100000005
    817, 0.0610000007, 0.000500000024
    818, 0.0615000017, 0.00150000001
    819, 0.0615000017, 0.00100000005
    820, 0.0615000017, 0.000500000024
    821, 0.0604999997, 0.00249999994
    822, 0.0610000007, 0.00249999994
    823, 0.0615000017, 0.00249999994
    824, 0.0584999993, 0.00150000001
    825, 0.0584999993, 0.00100000005
    826, 0.0584999993, 0.000500000024
    827, 0.0590000004, 0.00150000001
    828, 0.0590000004, 0.00100000005
    829, 0.0590000004, 0.000500000024
    830, 0.0595000014, 0.00150000001
    831, 0.0595000014, 0.00100000005
    832, 0.0595000014, 0.000500000024
    833, 0.0584999993, 0.00249999994
    834, 0.0590000004, 0.00249999994
    835, 0.0595000014, 0.00249999994
    836,  0.056499999, 0.00150000001
    837,  0.056499999, 0.00100000005
    838,  0.056499999, 0.000500000024
    839,        0.057, 0.00150000001
    840,        0.057, 0.00100000005
    841,        0.057, 0.000500000024
    842,  0.057500001, 0.00150000001
    843,  0.057500001, 0.00100000005
    844,  0.057500001, 0.000500000024
    845,  0.056499999, 0.00249999994
    846,        0.057, 0.00249999994
    847,  0.057500001, 0.00249999994
    848, 0.0544999987, 0.00150000001
    849, 0.0544999987, 0.00100000005
    850, 0.0544999987, 0.000500000024
    851, 0.0549999997, 0.00150000001
    852, 0.0549999997, 0.00100000005
    853, 0.0549999997, 0.000500000024
    854, 0.0555000007, 0.00150000001
    855, 0.0555000007, 0.00100000005
    856, 0.0555000007, 0.000500000024
    857, 0.0544999987, 0.00249999994
    858, 0.0549999997, 0.00249999994
    859, 0.0555000007, 0.00249999994
    860, 0.0524999984, 0.00150000001
    861, 0.0524999984, 0.00100000005
    862, 0.0524999984, 0.000500000024
    863, 0.0529999994, 0.00150000001
    864, 0.0529999994, 0.00100000005
    865, 0.0529999994, 0.000500000024
    866, 0.0535000004, 0.00150000001
    867, 0.0535000004, 0.00100000005
    868, 0.0535000004, 0.000500000024
    869, 0.0524999984, 0.00249999994
    870, 0.0529999994, 0.00249999994
    871, 0.0535000004, 0.00249999994
    872, 0.0505000018, 0.00150000001
    873, 0.0505000018, 0.00100000005
    874, 0.0505000018, 0.000500000024
    875,  0.050999999, 0.00150000001
    876,  0.050999999, 0.00100000005
    877,  0.050999999, 0.000500000024
    878, 0.0515000001, 0.00150000001
    879, 0.0515000001, 0.00100000005
    880, 0.0515000001, 0.000500000024
    881, 0.0505000018, 0.00249999994
    882,  0.050999999, 0.00249999994
    883, 0.0515000001, 0.00249999994
    884, 0.0485000014, 0.00150000001
    885, 0.0485000014, 0.00100000005
    886, 0.0485000014, 0.000500000024
    887, 0.0489999987, 0.00150000001
    888, 0.0489999987, 0.00100000005
    889, 0.0489999987, 0.000500000024
    890, 0.0494999997, 0.00150000001
    891, 0.0494999997, 0.00100000005
    892, 0.0494999997, 0.000500000024
    893, 0.0485000014, 0.00249999994
    894, 0.0489999987, 0.00249999994
    895, 0.0494999997, 0.00249999994
    896, 0.0465000011, 0.00150000001
    897, 0.0465000011, 0.00100000005
    898, 0.0465000011, 0.000500000024
    899, 0.0469999984, 0.00150000001
    900, 0.0469999984, 0.00100000005
    901, 0.0469999984, 0.000500000024
    902, 0.0474999994, 0.00150000001
    903, 0.0474999994, 0.00100000005
    904, 0.0474999994, 0.000500000024
    905, 0.0465000011, 0.00249999994
    906, 0.0469999984, 0.00249999994
    907, 0.0474999994, 0.00249999994
    908, 0.0445000008, 0.00150000001
    909, 0.0445000008, 0.00100000005
    910, 0.0445000008, 0.000500000024
    911, 0.0450000018, 0.00150000001
    912, 0.0450000018, 0.00100000005
    913, 0.0450000018, 0.000500000024
    914, 0.0454999991, 0.00150000001
    915, 0.0454999991, 0.00100000005
    916, 0.0454999991, 0.000500000024
    917, 0.0445000008, 0.00249999994
    918, 0.0450000018, 0.00249999994
    919, 0.0454999991, 0.00249999994
    920, 0.0425000004, 0.00150000001
    921, 0.0425000004, 0.00100000005
    922, 0.0425000004, 0.000500000024
    923, 0.0430000015, 0.00150000001
    924, 0.0430000015, 0.00100000005
    925, 0.0430000015, 0.000500000024
    926, 0.0434999987, 0.00150000001
    927, 0.0434999987, 0.00100000005
    928, 0.0434999987, 0.000500000024
    929, 0.0425000004, 0.00249999994
    930, 0.0430000015, 0.00249999994
    931, 0.0434999987, 0.00249999994
    932, 0.0405000001, 0.00150000001
    933, 0.0405000001, 0.00100000005
    934, 0.0405000001, 0.000500000024
    935, 0.0410000011, 0.00150000001
    936, 0.0410000011, 0.00100000005
    937, 0.0410000011, 0.000500000024
    938, 0.0414999984, 0.00150000001
    939, 0.0414999984, 0.00100000005
    940, 0.0414999984, 0.000500000024
    941, 0.0405000001, 0.00249999994
    942, 0.0410000011, 0.00249999994
    943, 0.0414999984, 0.00249999994
    944, 0.0384999998, 0.00150000001
    945, 0.0384999998, 0.00100000005
    946, 0.0384999998, 0.000500000024
    947, 0.0390000008, 0.00150000001
    948, 0.0390000008, 0.00100000005
    949, 0.0390000008, 0.000500000024
    950, 0.0395000018, 0.00150000001
    951, 0.0395000018, 0.00100000005
    952, 0.0395000018, 0.000500000024
    953, 0.0384999998, 0.00249999994
    954, 0.0390000008, 0.00249999994
    955, 0.0395000018, 0.00249999994
    956, 0.0364999995, 0.00150000001
    957, 0.0364999995, 0.00100000005
    958, 0.0364999995, 0.000500000024
    959, 0.0370000005, 0.00150000001
    960, 0.0370000005, 0.00100000005
    961, 0.0370000005, 0.000500000024
    962, 0.0375000015, 0.00150000001
    963, 0.0375000015, 0.00100000005
    964, 0.0375000015, 0.000500000024
    965, 0.0364999995, 0.00249999994
    966, 0.0370000005, 0.00249999994
    967, 0.0375000015, 0.00249999994
    968, 0.0344999991, 0.00150000001
    969, 0.0344999991, 0.00100000005
    970, 0.0344999991, 0.000500000024
    971, 0.0350000001, 0.00150000001
    972, 0.0350000001, 0.00100000005
    973, 0.0350000001, 0.000500000024
    974, 0.0355000012, 0.00150000001
    975, 0.0355000012, 0.00100000005
    976, 0.0355000012, 0.000500000024
    977, 0.0344999991, 0.00249999994
    978, 0.0350000001, 0.00249999994
    979, 0.0355000012, 0.00249999994
    980, 0.0324999988, 0.00150000001
    981, 0.0324999988, 0.00100000005
    982, 0.0324999988, 0.000500000024
    983, 0.0329999998, 0.00150000001
    984, 0.0329999998, 0.00100000005
    985, 0.0329999998, 0.000500000024
    986, 0.0335000008, 0.00150000001
    987, 0.0335000008, 0.00100000005
    988, 0.0335000008, 0.000500000024
    989, 0.0324999988, 0.00249999994
    990, 0.0329999998, 0.00249999994
    991, 0.0335000008, 0.00249999994
    992, 0.0305000003, 0.00150000001
    993, 0.0305000003, 0.00100000005
    994, 0.0305000003, 0.000500000024
    995, 0.0309999995, 0.00150000001
    996, 0.0309999995, 0.00100000005
    997, 0.0309999995, 0.000500000024
    998, 0.0315000005, 0.00150000001
    999, 0.0315000005, 0.00100000005
   1000, 0.0315000005, 0.000500000024
   1001, 0.0305000003, 0.00249999994
   1002, 0.0309999995, 0.00249999994
   1003, 0.0315000005, 0.00249999994
   1004,       0.0285, 0.00150000001
   1005,       0.0285, 0.00100000005
   1006,       0.0285, 0.000500000024
   1007, 0.0289999992, 0.00150000001
   1008, 0.0289999992, 0.00100000005
   1009, 0.0289999992, 0.000500000024
   1010, 0.0295000002, 0.00150000001
   1011, 0.0295000002, 0.00100000005
   1012, 0.0295000002, 0.000500000024
   1013,       0.0285, 0.00249999994
   1014, 0.0289999992, 0.00249999994
   1015, 0.0295000002, 0.00249999994
   1016, 0.0264999997, 0.00150000001
   1017, 0.0264999997, 0.00100000005
   1018, 0.0264999997, 0.000500000024
   1019, 0.0270000007, 0.00150000001
   1020, 0.0270000007, 0.00100000005
   1021, 0.0270000007, 0.000500000024
   1022, 0.0274999999, 0.00150000001
   1023, 0.0274999999, 0.00100000005
   1024, 0.0274999999, 0.000500000024
   1025, 0.0264999997, 0.00249999994
   1026, 0.0270000007, 0.00249999994
   1027, 0.0274999999, 0.00249999994
   1028, 0.0244999994, 0.00150000001
   1029, 0.0244999994, 0.00100000005
   1030, 0.0244999994, 0.000500000024
   1031, 0.0250000004, 0.00150000001
   1032, 0.0250000004, 0.00100000005
   1033, 0.0250000004, 0.000500000024
   1034, 0.0254999995, 0.00150000001
   1035, 0.0254999995, 0.00100000005
   1036, 0.0254999995, 0.000500000024
   1037, 0.0244999994, 0.00249999994
   1038, 0.0250000004, 0.00249999994
   1039, 0.0254999995, 0.00249999994
   1040, 0.0225000009, 0.00150000001
   1041, 0.0225000009, 0.00100000005
   1042, 0.0225000009, 0.000500000024
   1043,        0.023, 0.00150000001
   1044,        0.023, 0.00100000005
   1045,        0.023, 0.000500000024
   1046, 0.0234999992, 0.00150000001
   1047, 0.0234999992, 0.00100000005
   1048, 0.0234999992, 0.000500000024
   1049, 0.0225000009, 0.00249999994
   1050,        0.023, 0.00249999994
   1051, 0.0234999992, 0.00249999994
   1052, 0.0205000006, 0.00150000001
   1053, 0.0205000006, 0.00100000005
   1054, 0.0205000006, 0.000500000024
   1055, 0.0209999997, 0.00150000001
   1056, 0.0209999997, 0.00100000005
   1057, 0.0209999997, 0.000500000024
   1058, 0.0215000007, 0.00150000001
   1059, 0.0215000007, 0.00100000005
   1060, 0.0215000007, 0.000500000024
   1061, 0.0205000006, 0.00249999994
   1062, 0.0209999997, 0.00249999994
   1063, 0.0215000007, 0.00249999994
   1064, 0.0185000002, 0.00150000001
   1065, 0.0185000002, 0.00100000005
   1066, 0.0185000002, 0.000500000024
   1067, 0.0189999994, 0.00150000001
   1068, 0.0189999994, 0.00100000005
   1069, 0.0189999994, 0.000500000024
   1070, 0.0195000004, 0.00150000001
   1071, 0.0195000004, 0.00100000005
   1072, 0.0195000004, 0.000500000024
   1073, 0.0185000002, 0.00249999994
   1074, 0.0189999994, 0.00249999994
   1075, 0.0195000004, 0.00249999994
   1076, 0.0164999999, 0.00150000001
   1077, 0.0164999999, 0.00100000005
   1078, 0.0164999999, 0.000500000024
   1079, 0.0170000009, 0.00150000001
   1080, 0.0170000009, 0.00100000005
   1081, 0.0170000009, 0.000500000024
   1082, 0.0175000001, 0.00150000001
   1083, 0.0175000001, 0.00100000005
   1084, 0.0175000001, 0.000500000024
   1085, 0.0164999999, 0.00249999994
   1086, 0.0170000009, 0.00249999994
   1087, 0.0175000001, 0.00249999994
   1088, 0.0144999996, 0.00150000001
   1089, 0.0144999996, 0.00100000005
   1090, 0.0144999996, 0.000500000024
   1091, 0.0149999997, 0.00150000001
   1092, 0.0149999997, 0.00100000005
   1093, 0.0149999997, 0.000500000024
   1094, 0.0154999997, 0.00150000001
   1095, 0.0154999997, 0.00100000005
   1096, 0.0154999997, 0.000500000024
   1097, 0.0144999996, 0.00249999994
   1098, 0.0149999997, 0.00249999994
   1099, 0.0154999997, 0.00249999994
   1100, 0.0125000002, 0.00150000001
   1101, 0.0125000002, 0.00100000005
   1102, 0.0125000002, 0.000500000024
   1103, 0.0130000003, 0.00150000001
   1104, 0.0130000003, 0.00100000005
   1105, 0.0130000003, 0.000500000024
   1106, 0.0135000004, 0.00150000001
   1107, 0.0135000004, 0.00100000005
   1108, 0.0135000004, 0.000500000024
   1109, 0.0125000002, 0.00249999994
   1110, 0.0130000003, 0.00249999994
   1111, 0.0135000004, 0.00249999994
   1112, 0.0104999999, 0.00150000001
   1113, 0.0104999999, 0.00100000005
   1114, 0.0104999999, 0.000500000024
   1115, 0.0109999999, 0.00150000001
   1116, 0.0109999999, 0.00100000005
   1117, 0.0109999999, 0.000500000024
   1118,       0.0115, 0.00150000001
   1119,       0.0115, 0.00100000005
   1120,       0.0115, 0.000500000024
   1121, 0.0104999999, 0.00249999994
   1122, 0.0109999999, 0.00249999994
   1123,       0.0115, 0.00249999994
   1124, 0.00850000046, 0.00150000001
   1125, 0.00850000046, 0.00100000005
   1126, 0.00850000046, 0.000500000024
   1127, 0.00899999961, 0.00150000001
   1128, 0.00899999961, 0.00100000005
   1129, 0.00899999961, 0.000500000024
   1130, 0.00949999969, 0.00150000001
   1131, 0.00949999969, 0.00100000005
   1132, 0.00949999969, 0.000500000024
   1133, 0.00850000046, 0.00249999994
   1134, 0.00899999961, 0.00249999994
   1135, 0.00949999969, 0.00249999994
   1136, 0.00650000013, 0.00150000001
   1137, 0.00650000013, 0.00100000005
   1138, 0.00650000013, 0.000500000024
   1139, 0.00700000022, 0.00150000001
   1140, 0.00700000022, 0.00100000005
   1141, 0.00700000022, 0.000500000024
   1142, 0.00749999983, 0.00150000001
   1143, 0.00749999983, 0.00100000005
   1144, 0.00749999983, 0.000500000024
   1145, 0.00650000013, 0.00249999994
   1146, 0.00700000022, 0.00249999994
   1147, 0.00749999983, 0.00249999994
   1148, 0.00449999981, 0.00150000001
   1149, 0.00449999981, 0.00100000005
   1150, 0.00449999981, 0.000500000024
   1151, 0.00499999989, 0.00150000001
   1152, 0.00499999989, 0.00100000005
   1153, 0.00499999989, 0.000500000024
   1154, 0.00549999997, 0.00150000001
   1155, 0.00549999997, 0.00100000005
   1156, 0.00549999997, 0.000500000024
   1157, 0.00449999981, 0.00249999994
   1158, 0.00499999989, 0.00249999994
   1159, 0.00549999997, 0.00249999994
   1160, 0.00249999994, 0.00150000001
   1161, 0.00249999994, 0.00100000005
   1162, 0.00249999994, 0.000500000024
   1163, 0.00300000003, 0.00150000001
   1164, 0.00300000003, 0.00100000005
   1165, 0.00300000003, 0.000500000024
   1166, 0.00350000011, 0.00150000001
   1167, 0.00350000011, 0.00100000005
   1168, 0.00350000011, 0.000500000024
   1169, 0.00150000001, 0.00150000001
   1170, 0.00100000005, 0.00150000001
   1171, 0.000500000024, 0.00150000001
   1172, 0.00150000001, 0.00100000005
   1173, 0.00100000005, 0.00100000005
   1174, 0.000500000024, 0.00100000005
   1175, 0.00150000001, 0.000500000024
   1176, 0.00100000005, 0.000500000024
   1177, 0.000500000024, 0.000500000024
   1178, 0.00249999994, 0.00249999994
   1179, 0.00300000003, 0.00249999994
   1180, 0.00350000011, 0.00249999994
   1181, 0.00150000001, 0.00249999994
   1182, 0.00100000005, 0.00249999994
   1183, 0.000500000024, 0.00249999994
*Element, type=CPE4T
 1,   1, 130, 680, 141
 2, 130, 131, 681, 680
 3, 131, 132, 682, 681
 4, 132,   2, 133, 682
 5, 141, 680, 683, 140
 6, 680, 681, 684, 683
 7, 681, 682, 685, 684
 8, 682, 133, 134, 685
 9, 140, 683, 686, 139
10, 683, 684, 687, 686
11, 684, 685, 688, 687
12, 685, 134, 135, 688
13, 139, 686, 138,   4
14, 686, 687, 137, 138
15, 687, 688, 136, 137
16, 688, 135,   3, 136
17,   5, 142, 689, 146
18, 142,   1, 141, 689
19, 146, 689, 690, 145
20, 689, 141, 140, 690
21, 145, 690, 691, 144
22, 690, 140, 139, 691
23, 144, 691, 143,   6
24, 691, 139,   4, 143
25,   7, 147, 692, 155
26, 147, 148, 693, 692
27, 148, 149, 694, 693
28, 149,   8, 150, 694
29, 155, 692, 695, 154
30, 692, 693, 696, 695
31, 693, 694, 697, 696
32, 694, 150, 151, 697
33, 154, 695, 698, 153
34, 695, 696, 699, 698
35, 696, 697, 700, 699
36, 697, 151, 152, 700
37, 153, 698, 130,   1
38, 698, 699, 131, 130
39, 699, 700, 132, 131
40, 700, 152,   2, 132
41,   9, 156, 701, 159
42, 156,   7, 155, 701
43, 159, 701, 702, 158
44, 701, 155, 154, 702
45, 158, 702, 703, 157
46, 702, 154, 153, 703
47, 157, 703, 142,   5
48, 703, 153,   1, 142
49,   8, 149, 704, 168
50, 149, 148, 705, 704
51, 148, 147, 706, 705
52, 147,   7, 160, 706
53, 168, 704, 707, 167
54, 704, 705, 708, 707
55, 705, 706, 709, 708
56, 706, 160, 161, 709
57, 167, 707, 710, 166
58, 707, 708, 711, 710
59, 708, 709, 712, 711
60, 709, 161, 162, 712
61, 166, 710, 165,  11
62, 710, 711, 164, 165
63, 711, 712, 163, 164
64, 712, 162,  10, 163
65,  12, 169, 713, 172
66, 169,  10, 162, 713
67, 172, 713, 714, 171
68, 713, 162, 161, 714
69, 171, 714, 715, 170
70, 714, 161, 160, 715
71, 170, 715, 156,   9
72, 715, 160,   7, 156
73,  13, 173, 716, 181
74, 173, 174, 717, 716
75, 174, 175, 718, 717
76, 175,  14, 176, 718
77, 181, 716, 719, 180
78, 716, 717, 720, 719
79, 717, 718, 721, 720
80, 718, 176, 177, 721
81, 180, 719, 722, 179
82, 719, 720, 723, 722
83, 720, 721, 724, 723
84, 721, 177, 178, 724
85, 179, 722, 163,  10
86, 722, 723, 164, 163
87, 723, 724, 165, 164
88, 724, 178,  11, 165
89,  15, 182, 725, 185
90, 182,  13, 181, 725
91, 185, 725, 726, 184
92, 725, 181, 180, 726
93, 184, 726, 727, 183
94, 726, 180, 179, 727
95, 183, 727, 169,  12
96, 727, 179,  10, 169
 97,  16, 186, 728, 194
 98, 186, 187, 729, 728
 99, 187, 188, 730, 729
100, 188,  17, 189, 730
101, 194, 728, 731, 193
102, 728, 729, 732, 731
103, 729, 730, 733, 732
104, 730, 189, 190, 733
105, 193, 731, 734, 192
106, 731, 732, 735, 734
107, 732, 733, 736, 735
108, 733, 190, 191, 736
109, 192, 734, 173,  13
110, 734, 735, 174, 173
111, 735, 736, 175, 174
112, 736, 191,  14, 175
113,  18, 195, 737, 198
114, 195,  16, 194, 737
115, 198, 737, 738, 197
116, 737, 194, 193, 738
117, 197, 738, 739, 196
118, 738, 193, 192, 739
119, 196, 739, 182,  15
120, 739, 192,  13, 182
121,  19, 199, 740, 207
122, 199, 200, 741, 740
123, 200, 201, 742, 741
124, 201,  20, 202, 742
125, 207, 740, 743, 206
126, 740, 741, 744, 743
127, 741, 742, 745, 744
128, 742, 202, 203, 745
129, 206, 743, 746, 205
130, 743, 744, 747, 746
131, 744, 745, 748, 747
132, 745, 203, 204, 748
133, 205, 746, 186,  16
134, 746, 747, 187, 186
135, 747, 748, 188, 187
136, 748, 204,  17, 188
137,  21, 208, 749, 211
138, 208,  19, 207, 749
139, 211, 749, 750, 210
140, 749, 207, 206, 750
141, 210, 750, 751, 209
142, 750, 206, 205, 751
143, 209, 751, 195,  18
144, 751, 205,  16, 195
145,  22, 212, 752, 220
146, 212, 213, 753, 752
147, 213, 214, 754, 753
148, 214,  23, 215, 754
149, 220, 752, 755, 219
150, 752, 753, 756, 755
151, 753, 754, 757, 756
152, 754, 215, 216, 757
153, 219, 755, 758, 218
154, 755, 756, 759, 758
155, 756, 757, 760, 759
156, 757, 216, 217, 760
157, 218, 758, 199,  19
158, 758, 759, 200, 199
159, 759, 760, 201, 200
160, 760, 217,  20, 201
161,  24, 221, 761, 224
162, 221,  22, 220, 761
163, 224, 761, 762, 223
164, 761, 220, 219, 762
165, 223, 762, 763, 222
166, 762, 219, 218, 763
167, 222, 763, 208,  21
168, 763, 218,  19, 208
169,  25, 225, 764, 233
170, 225, 226, 765, 764
171, 226, 227, 766, 765
172, 227,  26, 228, 766
173, 233, 764, 767, 232
174, 764, 765, 768, 767
175, 765, 766, 769, 768
176, 766, 228, 229, 769
177, 232, 767, 770, 231
178, 767, 768, 771, 770
179, 768, 769, 772, 771
180, 769, 229, 230, 772
181, 231, 770, 212,  22
182, 770, 771, 213, 212
183, 771, 772, 214, 213
184, 772, 230,  23, 214
185,  27, 234, 773, 237
186, 234,  25, 233, 773
187, 237, 773, 774, 236
188, 773, 233, 232, 774
189, 236, 774, 775, 235
190, 774, 232, 231, 775
191, 235, 775, 221,  24
192, 775, 231,  22, 221
193,  28, 238, 776, 246
194, 238, 239, 777, 776
195, 239, 240, 778, 777
196, 240,  29, 241, 778
197, 246, 776, 779, 245
198, 776, 777, 780, 779
199, 777, 778, 781, 780
200, 778, 241, 242, 781
201, 245, 779, 782, 244
202, 779, 780, 783, 782
203, 780, 781, 784, 783
204, 781, 242, 243, 784
205, 244, 782, 225,  25
206, 782, 783, 226, 225
207, 783, 784, 227, 226
208, 784, 243,  26, 227
209,  30, 247, 785, 250
210, 247,  28, 246, 785
211, 250, 785, 786, 249
212, 785, 246, 245, 786
213, 249, 786, 787, 248
214, 786, 245, 244, 787
215, 248, 787, 234,  27
216, 787, 244,  25, 234
217,  31, 251, 788, 259
218, 251, 252, 789, 788
219, 252, 253, 790, 789
220, 253,  32, 254, 790
221, 259, 788, 791, 258
222, 788, 789, 792, 791
223, 789, 790, 793, 792
224, 790, 254, 255, 793
225, 258, 791, 794, 257
226, 791, 792, 795, 794
227, 792, 793, 796, 795
228, 793, 255, 256, 796
229, 257, 794, 238,  28
230, 794, 795, 239, 238
231, 795, 796, 240, 239
232, 796, 256,  29, 240
233,  33, 260, 797, 263
234, 260,  31, 259, 797
235, 263, 797, 798, 262
236, 797, 259, 258, 798
237, 262, 798, 799, 261
238, 798, 258, 257, 799
239, 261, 799, 247,  30
240, 799, 257,  28, 247
241,  34, 264, 800, 272
242, 264, 265, 801, 800
243, 265, 266, 802, 801
244, 266,  35, 267, 802
245, 272, 800, 803, 271
246, 800, 801, 804, 803
247, 801, 802, 805, 804
248, 802, 267, 268, 805
249, 271, 803, 806, 270
250, 803, 804, 807, 806
251, 804, 805, 808, 807
252, 805, 268, 269, 808
253, 270, 806, 251,  31
254, 806, 807, 252, 251
255, 807, 808, 253, 252
256, 808, 269,  32, 253
257,  36, 273, 809, 276
258, 273,  34, 272, 809
259, 276, 809, 810, 275
260, 809, 272, 271, 810
261, 275, 810, 811, 274
262, 810, 271, 270, 811
263, 274, 811, 260,  33
264, 811, 270,  31, 260
265,  37, 277, 812, 285
266, 277, 278, 813, 812
267, 278, 279, 814, 813
268, 279,  38, 280, 814
269, 285, 812, 815, 284
270, 812, 813, 816, 815
271, 813, 814, 817, 816
272, 814, 280, 281, 817
273, 284, 815, 818, 283
274, 815, 816, 819, 818
275, 816, 817, 820, 819
276, 817, 281, 282, 820
277, 283, 818, 264,  34
278, 818, 819, 265, 264
279, 819, 820, 266, 265
280, 820, 282,  35, 266
281,  39, 286, 821, 289
282, 286,  37, 285, 821
283, 289, 821, 822, 288
284, 821, 285, 284, 822
285, 288, 822, 823, 287
286, 822, 284, 283, 823
287, 287, 823, 273,  36
288, 823, 283,  34, 273
289,  40, 290, 824, 298
290, 290, 291, 825, 824
291, 291, 292, 826, 825
292, 292,  41, 293, 826
293, 298, 824, 827, 297
294, 824, 825, 828, 827
295, 825, 826, 829, 828
296, 826, 293, 294, 829
297, 297, 827, 830, 296
298, 827, 828, 831, 830
299, 828, 829, 832, 831
300, 829, 294, 295, 832
301, 296, 830, 277,  37
302, 830, 831, 278, 277
303, 831, 832, 279, 278
304, 832, 295,  38, 279
305,  42, 299, 833, 302
306, 299,  40, 298, 833
307, 302, 833, 834, 301
308, 833, 298, 297, 834
309, 301, 834, 835, 300
310, 834, 297, 296, 835
311, 300, 835, 286,  39
312, 835, 296,  37, 286
313,  43, 303, 836, 311
314, 303, 304, 837, 836
315, 304, 305, 838, 837
316, 305,  44, 306, 838
317, 311, 836, 839, 310
318, 836, 837, 840, 839
319, 837, 838, 841, 840
320, 838, 306, 307, 841
321, 310, 839, 842, 309
322, 839, 840, 843, 842
323, 840, 841, 844, 843
324, 841, 307, 308, 844
325, 309, 842, 290,  40
326, 842, 843, 291, 290
327, 843, 844, 292, 291
328, 844, 308,  41, 292
329,  45, 312, 845, 315
330, 312,  43, 311, 845
331, 315, 845, 846, 314
332, 845, 311, 310, 846
333, 314, 846, 847, 313
334, 846, 310, 309, 847
335, 313, 847, 299,  42
336, 847, 309,  40, 299
337,  46, 316, 848, 324
338, 316, 317, 849, 848
339, 317, 318, 850, 849
340, 318,  47, 319, 850
341, 324, 848, 851, 323
342, 848, 849, 852, 851
343, 849, 850, 853, 852
344, 850, 319, 320, 853
345, 323, 851, 854, 322
346, 851, 852, 855, 854
347, 852, 853, 856, 855
348, 853, 320, 321, 856
349, 322, 854, 303,  43
350, 854, 855, 304, 303
351, 855, 856, 305, 304
352, 856, 321,  44, 305
353,  48, 325, 857, 328
354, 325,  46, 324, 857
355, 328, 857, 858, 327
356, 857, 324, 323, 858
357, 327, 858, 859, 326
358, 858, 323, 322, 859
359, 326, 859, 312,  45
360, 859, 322,  43, 312
361,  49, 329, 860, 337
362, 329, 330, 861, 860
363, 330, 331, 862, 861
364, 331,  50, 332, 862
365, 337, 860, 863, 336
366, 860, 861, 864, 863
367, 861, 862, 865, 864
368, 862, 332, 333, 865
369, 336, 863, 866, 335
370, 863, 864, 867, 866
371, 864, 865, 868, 867
372, 865, 333, 334, 868
373, 335, 866, 316,  46
374, 866, 867, 317, 316
375, 867, 868, 318, 317
376, 868, 334,  47, 318
377,  51, 338, 869, 341
378, 338,  49, 337, 869
379, 341, 869, 870, 340
380, 869, 337, 336, 870
381, 340, 870, 871, 339
382, 870, 336, 335, 871
383, 339, 871, 325,  48
384, 871, 335,  46, 325
385,  52, 342, 872, 350
386, 342, 343, 873, 872
387, 343, 344, 874, 873
388, 344,  53, 345, 874
389, 350, 872, 875, 349
390, 872, 873, 876, 875
391, 873, 874, 877, 876
392, 874, 345, 346, 877
393, 349, 875, 878, 348
394, 875, 876, 879, 878
395, 876, 877, 880, 879
396, 877, 346, 347, 880
397, 348, 878, 329,  49
398, 878, 879, 330, 329
399, 879, 880, 331, 330
400, 880, 347,  50, 331
401,  54, 351, 881, 354
402, 351,  52, 350, 881
403, 354, 881, 882, 353
404, 881, 350, 349, 882
405, 353, 882, 883, 352
406, 882, 349, 348, 883
407, 352, 883, 338,  51
408, 883, 348,  49, 338
409,  55, 355, 884, 363
410, 355, 356, 885, 884
411, 356, 357, 886, 885
412, 357,  56, 358, 886
413, 363, 884, 887, 362
414, 884, 885, 888, 887
415, 885, 886, 889, 888
416, 886, 358, 359, 889
417, 362, 887, 890, 361
418, 887, 888, 891, 890
419, 888, 889, 892, 891
420, 889, 359, 360, 892
421, 361, 890, 342,  52
422, 890, 891, 343, 342
423, 891, 892, 344, 343
424, 892, 360,  53, 344
425,  57, 364, 893, 367
426, 364,  55, 363, 893
427, 367, 893, 894, 366
428, 893, 363, 362, 894
429, 366, 894, 895, 365
430, 894, 362, 361, 895
431, 365, 895, 351,  54
432, 895, 361,  52, 351
433,  58, 368, 896, 376
434, 368, 369, 897, 896
435, 369, 370, 898, 897
436, 370,  59, 371, 898
437, 376, 896, 899, 375
438, 896, 897, 900, 899
439, 897, 898, 901, 900
440, 898, 371, 372, 901
441, 375, 899, 902, 374
442, 899, 900, 903, 902
443, 900, 901, 904, 903
444, 901, 372, 373, 904
445, 374, 902, 355,  55
446, 902, 903, 356, 355
447, 903, 904, 357, 356
448, 904, 373,  56, 357
449,  60, 377, 905, 380
450, 377,  58, 376, 905
451, 380, 905, 906, 379
452, 905, 376, 375, 906
453, 379, 906, 907, 378
454, 906, 375, 374, 907
455, 378, 907, 364,  57
456, 907, 374,  55, 364
457,  61, 381, 908, 389
458, 381, 382, 909, 908
459, 382, 383, 910, 909
460, 383,  62, 384, 910
461, 389, 908, 911, 388
462, 908, 909, 912, 911
463, 909, 910, 913, 912
464, 910, 384, 385, 913
465, 388, 911, 914, 387
466, 911, 912, 915, 914
467, 912, 913, 916, 915
468, 913, 385, 386, 916
469, 387, 914, 368,  58
470, 914, 915, 369, 368
471, 915, 916, 370, 369
472, 916, 386,  59, 370
473,  63, 390, 917, 393
474, 390,  61, 389, 917
475, 393, 917, 918, 392
476, 917, 389, 388, 918
477, 392, 918, 919, 391
478, 918, 388, 387, 919
479, 391, 919, 377,  60
480, 919, 387,  58, 377
481,  64, 394, 920, 402
482, 394, 395, 921, 920
483, 395, 396, 922, 921
484, 396,  65, 397, 922
485, 402, 920, 923, 401
486, 920, 921, 924, 923
487, 921, 922, 925, 924
488, 922, 397, 398, 925
489, 401, 923, 926, 400
490, 923, 924, 927, 926
491, 924, 925, 928, 927
492, 925, 398, 399, 928
493, 400, 926, 381,  61
494, 926, 927, 382, 381
495, 927, 928, 383, 382
496, 928, 399,  62, 383
497,  66, 403, 929, 406
498, 403,  64, 402, 929
499, 406, 929, 930, 405
500, 929, 402, 401, 930
501, 405, 930, 931, 404
502, 930, 401, 400, 931
503, 404, 931, 390,  63
504, 931, 400,  61, 390
505,  67, 407, 932, 415
506, 407, 408, 933, 932
507, 408, 409, 934, 933
508, 409,  68, 410, 934
509, 415, 932, 935, 414
510, 932, 933, 936, 935
511, 933, 934, 937, 936
512, 934, 410, 411, 937
513, 414, 935, 938, 413
514, 935, 936, 939, 938
515, 936, 937, 940, 939
516, 937, 411, 412, 940
517, 413, 938, 394,  64
518, 938, 939, 395, 394
519, 939, 940, 396, 395
520, 940, 412,  65, 396
521,  69, 416, 941, 419
522, 416,  67, 415, 941
523, 419, 941, 942, 418
524, 941, 415, 414, 942
525, 418, 942, 943, 417
526, 942, 414, 413, 943
527, 417, 943, 403,  66
528, 943, 413,  64, 403
529,  70, 420, 944, 428
530, 420, 421, 945, 944
531, 421, 422, 946, 945
532, 422,  71, 423, 946
533, 428, 944, 947, 427
534, 944, 945, 948, 947
535, 945, 946, 949, 948
536, 946, 423, 424, 949
537, 427, 947, 950, 426
538, 947, 948, 951, 950
539, 948, 949, 952, 951
540, 949, 424, 425, 952
541, 426, 950, 407,  67
542, 950, 951, 408, 407
543, 951, 952, 409, 408
544, 952, 425,  68, 409
545,  72, 429, 953, 432
546, 429,  70, 428, 953
547, 432, 953, 954, 431
548, 953, 428, 427, 954
549, 431, 954, 955, 430
550, 954, 427, 426, 955
551, 430, 955, 416,  69
552, 955, 426,  67, 416
553,  73, 433, 956, 441
554, 433, 434, 957, 956
555, 434, 435, 958, 957
556, 435,  74, 436, 958
557, 441, 956, 959, 440
558, 956, 957, 960, 959
559, 957, 958, 961, 960
560, 958, 436, 437, 961
561, 440, 959, 962, 439
562, 959, 960, 963, 962
563, 960, 961, 964, 963
564, 961, 437, 438, 964
565, 439, 962, 420,  70
566, 962, 963, 421, 420
567, 963, 964, 422, 421
568, 964, 438,  71, 422
569,  75, 442, 965, 445
570, 442,  73, 441, 965
571, 445, 965, 966, 444
572, 965, 441, 440, 966
573, 444, 966, 967, 443
574, 966, 440, 439, 967
575, 443, 967, 429,  72
576, 967, 439,  70, 429
577,  76, 446, 968, 454
578, 446, 447, 969, 968
579, 447, 448, 970, 969
580, 448,  77, 449, 970
581, 454, 968, 971, 453
582, 968, 969, 972, 971
583, 969, 970, 973, 972
584, 970, 449, 450, 973
585, 453, 971, 974, 452
586, 971, 972, 975, 974
587, 972, 973, 976, 975
588, 973, 450, 451, 976
589, 452, 974, 433,  73
590, 974, 975, 434, 433
591, 975, 976, 435, 434
592, 976, 451,  74, 435
593,  78, 455, 977, 458
594, 455,  76, 454, 977
595, 458, 977, 978, 457
596, 977, 454, 453, 978
597, 457, 978, 979, 456
598, 978, 453, 452, 979
599, 456, 979, 442,  75
600, 979, 452,  73, 442
601,  79, 459, 980, 467
602, 459, 460, 981, 980
603, 460, 461, 982, 981
604, 461,  80, 462, 982
605, 467, 980, 983, 466
606, 980, 981, 984, 983
607, 981, 982, 985, 984
608, 982, 462, 463, 985
609, 466, 983, 986, 465
610, 983, 984, 987, 986
611, 984, 985, 988, 987
612, 985, 463, 464, 988
613, 465, 986, 446,  76
614, 986, 987, 447, 446
615, 987, 988, 448, 447
616, 988, 464,  77, 448
617,  81, 468, 989, 471
618, 468,  79, 467, 989
619, 471, 989, 990, 470
620, 989, 467, 466, 990
621, 470, 990, 991, 469
622, 990, 466, 465, 991
623, 469, 991, 455,  78
624, 991, 465,  76, 455
625,   82,  472,  992,  480
626,  472,  473,  993,  992
627,  473,  474,  994,  993
628,  474,   83,  475,  994
629,  480,  992,  995,  479
630,  992,  993,  996,  995
631,  993,  994,  997,  996
632,  994,  475,  476,  997
633,  479,  995,  998,  478
634,  995,  996,  999,  998
635,  996,  997, 1000,  999
636,  997,  476,  477, 1000
637,  478,  998,  459,   79
638,  998,  999,  460,  459
639,  999, 1000,  461,  460
640, 1000,  477,   80,  461
641,   84,  481, 1001,  484
642,  481,   82,  480, 1001
643,  484, 1001, 1002,  483
644, 1001,  480,  479, 1002
645,  483, 1002, 1003,  482
646, 1002,  479,  478, 1003
647,  482, 1003,  468,   81
648, 1003,  478,   79,  468
649,   85,  485, 1004,  493
650,  485,  486, 1005, 1004
651,  486,  487, 1006, 1005
652,  487,   86,  488, 1006
653,  493, 1004, 1007,  492
654, 1004, 1005, 1008, 1007
655, 1005, 1006, 1009, 1008
656, 1006,  488,  489, 1009
657,  492, 1007, 1010,  491
658, 1007, 1008, 1011, 1010
659, 1008, 1009, 1012, 1011
660, 1009,  489,  490, 1012
661,  491, 1010,  472,   82
662, 1010, 1011,  473,  472
663, 1011, 1012,  474,  473
664, 1012,  490,   83,  474
665,   87,  494, 1013,  497
666,  494,   85,  493, 1013
667,  497, 1013, 1014,  496
668, 1013,  493,  492, 1014
669,  496, 1014, 1015,  495
670, 1014,  492,  491, 1015
671,  495, 1015,  481,   84
672, 1015,  491,   82,  481
673,   88,  498, 1016,  506
674,  498,  499, 1017, 1016
675,  499,  500, 1018, 1017
676,  500,   89,  501, 1018
677,  506, 1016, 1019,  505
678, 1016, 1017, 1020, 1019
679, 1017, 1018, 1021, 1020
680, 1018,  501,  502, 1021
681,  505, 1019, 1022,  504
682, 1019, 1020, 1023, 1022
683, 1020, 1021, 1024, 1023
684, 1021,  502,  503, 1024
685,  504, 1022,  485,   85
686, 1022, 1023,  486,  485
687, 1023, 1024,  487,  486
688, 1024,  503,   86,  487
689,   90,  507, 1025,  510
690,  507,   88,  506, 1025
691,  510, 1025, 1026,  509
692, 1025,  506,  505, 1026
693,  509, 1026, 1027,  508
694, 1026,  505,  504, 1027
695,  508, 1027,  494,   87
696, 1027,  504,   85,  494
697,   91,  511, 1028,  519
698,  511,  512, 1029, 1028
699,  512,  513, 1030, 1029
700,  513,   92,  514, 1030
701,  519, 1028, 1031,  518
702, 1028, 1029, 1032, 1031
703, 1029, 1030, 1033, 1032
704, 1030,  514,  515, 1033
705,  518, 1031, 1034,  517
706, 1031, 1032, 1035, 1034
707, 1032, 1033, 1036, 1035
708, 1033,  515,  516, 1036
709,  517, 1034,  498,   88
710, 1034, 1035,  499,  498
711, 1035, 1036,  500,  499
712, 1036,  516,   89,  500
713,   93,  520, 1037,  523
714,  520,   91,  519, 1037
715,  523, 1037, 1038,  522
716, 1037,  519,  518, 1038
717,  522, 1038, 1039,  521
718, 1038,  518,  517, 1039
719,  521, 1039,  507,   90
720, 1039,  517,   88,  507
721,   94,  524, 1040,  532
722,  524,  525, 1041, 1040
723,  525,  526, 1042, 1041
724,  526,   95,  527, 1042
725,  532, 1040, 1043,  531
726, 1040, 1041, 1044, 1043
727, 1041, 1042, 1045, 1044
728, 1042,  527,  528, 1045
729,  531, 1043, 1046,  530
730, 1043, 1044, 1047, 1046
731, 1044, 1045, 1048, 1047
732, 1045,  528,  529, 1048
733,  530, 1046,  511,   91
734, 1046, 1047,  512,  511
735, 1047, 1048,  513,  512
736, 1048,  529,   92,  513
737,   96,  533, 1049,  536
738,  533,   94,  532, 1049
739,  536, 1049, 1050,  535
740, 1049,  532,  531, 1050
741,  535, 1050, 1051,  534
742, 1050,  531,  530, 1051
743,  534, 1051,  520,   93
744, 1051,  530,   91,  520
745,   97,  537, 1052,  545
746,  537,  538, 1053, 1052
747,  538,  539, 1054, 1053
748,  539,   98,  540, 1054
749,  545, 1052, 1055,  544
750, 1052, 1053, 1056, 1055
751, 1053, 1054, 1057, 1056
752, 1054,  540,  541, 1057
753,  544, 1055, 1058,  543
754, 1055, 1056, 1059, 1058
755, 1056, 1057, 1060, 1059
756, 1057,  541,  542, 1060
757,  543, 1058,  524,   94
758, 1058, 1059,  525,  524
759, 1059, 1060,  526,  525
760, 1060,  542,   95,  526
761,   99,  546, 1061,  549
762,  546,   97,  545, 1061
763,  549, 1061, 1062,  548
764, 1061,  545,  544, 1062
765,  548, 1062, 1063,  547
766, 1062,  544,  543, 1063
767,  547, 1063,  533,   96
768, 1063,  543,   94,  533
769,  100,  550, 1064,  558
770,  550,  551, 1065, 1064
771,  551,  552, 1066, 1065
772,  552,  101,  553, 1066
773,  558, 1064, 1067,  557
774, 1064, 1065, 1068, 1067
775, 1065, 1066, 1069, 1068
776, 1066,  553,  554, 1069
777,  557, 1067, 1070,  556
778, 1067, 1068, 1071, 1070
779, 1068, 1069, 1072, 1071
780, 1069,  554,  555, 1072
781,  556, 1070,  537,   97
782, 1070, 1071,  538,  537
783, 1071, 1072,  539,  538
784, 1072,  555,   98,  539
785,  102,  559, 1073,  562
786,  559,  100,  558, 1073
787,  562, 1073, 1074,  561
788, 1073,  558,  557, 1074
789,  561, 1074, 1075,  560
790, 1074,  557,  556, 1075
791,  560, 1075,  546,   99
792, 1075,  556,   97,  546
793,  103,  563, 1076,  571
794,  563,  564, 1077, 1076
795,  564,  565, 1078, 1077
796,  565,  104,  566, 1078
797,  571, 1076, 1079,  570
798, 1076, 1077, 1080, 1079
799, 1077, 1078, 1081, 1080
800, 1078,  566,  567, 1081
801,  570, 1079, 1082,  569
802, 1079, 1080, 1083, 1082
803, 1080, 1081, 1084, 1083
804, 1081,  567,  568, 1084
805,  569, 1082,  550,  100
806, 1082, 1083,  551,  550
807, 1083, 1084,  552,  551
808, 1084,  568,  101,  552
809,  105,  572, 1085,  575
810,  572,  103,  571, 1085
811,  575, 1085, 1086,  574
812, 1085,  571,  570, 1086
813,  574, 1086, 1087,  573
814, 1086,  570,  569, 1087
815,  573, 1087,  559,  102
816, 1087,  569,  100,  559
817,  106,  576, 1088,  584
818,  576,  577, 1089, 1088
819,  577,  578, 1090, 1089
820,  578,  107,  579, 1090
821,  584, 1088, 1091,  583
822, 1088, 1089, 1092, 1091
823, 1089, 1090, 1093, 1092
824, 1090,  579,  580, 1093
825,  583, 1091, 1094,  582
826, 1091, 1092, 1095, 1094
827, 1092, 1093, 1096, 1095
828, 1093,  580,  581, 1096
829,  582, 1094,  563,  103
830, 1094, 1095,  564,  563
831, 1095, 1096,  565,  564
832, 1096,  581,  104,  565
833,  108,  585, 1097,  588
834,  585,  106,  584, 1097
835,  588, 1097, 1098,  587
836, 1097,  584,  583, 1098
837,  587, 1098, 1099,  586
838, 1098,  583,  582, 1099
839,  586, 1099,  572,  105
840, 1099,  582,  103,  572
841,  109,  589, 1100,  597
842,  589,  590, 1101, 1100
843,  590,  591, 1102, 1101
844,  591,  110,  592, 1102
845,  597, 1100, 1103,  596
846, 1100, 1101, 1104, 1103
847, 1101, 1102, 1105, 1104
848, 1102,  592,  593, 1105
849,  596, 1103, 1106,  595
850, 1103, 1104, 1107, 1106
851, 1104, 1105, 1108, 1107
852, 1105,  593,  594, 1108
853,  595, 1106,  576,  106
854, 1106, 1107,  577,  576
855, 1107, 1108,  578,  577
856, 1108,  594,  107,  578
857,  111,  598, 1109,  601
858,  598,  109,  597, 1109
859,  601, 1109, 1110,  600
860, 1109,  597,  596, 1110
861,  600, 1110, 1111,  599
862, 1110,  596,  595, 1111
863,  599, 1111,  585,  108
864, 1111,  595,  106,  585
865,  112,  602, 1112,  610
866,  602,  603, 1113, 1112
867,  603,  604, 1114, 1113
868,  604,  113,  605, 1114
869,  610, 1112, 1115,  609
870, 1112, 1113, 1116, 1115
871, 1113, 1114, 1117, 1116
872, 1114,  605,  606, 1117
873,  609, 1115, 1118,  608
874, 1115, 1116, 1119, 1118
875, 1116, 1117, 1120, 1119
876, 1117,  606,  607, 1120
877,  608, 1118,  589,  109
878, 1118, 1119,  590,  589
879, 1119, 1120,  591,  590
880, 1120,  607,  110,  591
881,  114,  611, 1121,  614
882,  611,  112,  610, 1121
883,  614, 1121, 1122,  613
884, 1121,  610,  609, 1122
885,  613, 1122, 1123,  612
886, 1122,  609,  608, 1123
887,  612, 1123,  598,  111
888, 1123,  608,  109,  598
889,  115,  615, 1124,  623
890,  615,  616, 1125, 1124
891,  616,  617, 1126, 1125
892,  617,  116,  618, 1126
893,  623, 1124, 1127,  622
894, 1124, 1125, 1128, 1127
895, 1125, 1126, 1129, 1128
896, 1126,  618,  619, 1129
897,  622, 1127, 1130,  621
898, 1127, 1128, 1131, 1130
899, 1128, 1129, 1132, 1131
900, 1129,  619,  620, 1132
901,  621, 1130,  602,  112
902, 1130, 1131,  603,  602
903, 1131, 1132,  604,  603
904, 1132,  620,  113,  604
905,  117,  624, 1133,  627
906,  624,  115,  623, 1133
907,  627, 1133, 1134,  626
908, 1133,  623,  622, 1134
909,  626, 1134, 1135,  625
910, 1134,  622,  621, 1135
911,  625, 1135,  611,  114
912, 1135,  621,  112,  611
913,  118,  628, 1136,  636
914,  628,  629, 1137, 1136
915,  629,  630, 1138, 1137
916,  630,  119,  631, 1138
917,  636, 1136, 1139,  635
918, 1136, 1137, 1140, 1139
919, 1137, 1138, 1141, 1140
920, 1138,  631,  632, 1141
921,  635, 1139, 1142,  634
922, 1139, 1140, 1143, 1142
923, 1140, 1141, 1144, 1143
924, 1141,  632,  633, 1144
925,  634, 1142,  615,  115
926, 1142, 1143,  616,  615
927, 1143, 1144,  617,  616
928, 1144,  633,  116,  617
929,  120,  637, 1145,  640
930,  637,  118,  636, 1145
931,  640, 1145, 1146,  639
932, 1145,  636,  635, 1146
933,  639, 1146, 1147,  638
934, 1146,  635,  634, 1147
935,  638, 1147,  624,  117
936, 1147,  634,  115,  624
937,  121,  641, 1148,  649
938,  641,  642, 1149, 1148
939,  642,  643, 1150, 1149
940,  643,  122,  644, 1150
941,  649, 1148, 1151,  648
942, 1148, 1149, 1152, 1151
943, 1149, 1150, 1153, 1152
944, 1150,  644,  645, 1153
945,  648, 1151, 1154,  647
946, 1151, 1152, 1155, 1154
947, 1152, 1153, 1156, 1155
948, 1153,  645,  646, 1156
949,  647, 1154,  628,  118
950, 1154, 1155,  629,  628
951, 1155, 1156,  630,  629
952, 1156,  646,  119,  630
953,  123,  650, 1157,  653
954,  650,  121,  649, 1157
955,  653, 1157, 1158,  652
956, 1157,  649,  648, 1158
957,  652, 1158, 1159,  651
958, 1158,  648,  647, 1159
959,  651, 1159,  637,  120
960, 1159,  647,  118,  637
961,  124,  654, 1160,  662
962,  654,  655, 1161, 1160
963,  655,  656, 1162, 1161
964,  656,  125,  657, 1162
965,  662, 1160, 1163,  661
966, 1160, 1161, 1164, 1163
967, 1161, 1162, 1165, 1164
968, 1162,  657,  658, 1165
969,  661, 1163, 1166,  660
970, 1163, 1164, 1167, 1166
971, 1164, 1165, 1168, 1167
972, 1165,  658,  659, 1168
973,  660, 1166,  641,  121
974, 1166, 1167,  642,  641
975, 1167, 1168,  643,  642
976, 1168,  659,  122,  643
977,  124,  663, 1169,  654
978,  663,  664, 1170, 1169
979,  664,  665, 1171, 1170
980,  665,  126,  666, 1171
981,  654, 1169, 1172,  655
982, 1169, 1170, 1173, 1172
983, 1170, 1171, 1174, 1173
984, 1171,  666,  667, 1174
985,  655, 1172, 1175,  656
986, 1172, 1173, 1176, 1175
987, 1173, 1174, 1177, 1176
988, 1174,  667,  668, 1177
989,  656, 1175,  671,  125
990, 1175, 1176,  670,  671
991, 1176, 1177,  669,  670
992, 1177,  668,  127,  669
 993,  128,  672, 1178,  675
 994,  672,  124,  662, 1178
 995,  675, 1178, 1179,  674
 996, 1178,  662,  661, 1179
 997,  674, 1179, 1180,  673
 998, 1179,  661,  660, 1180
 999,  673, 1180,  650,  123
1000, 1180,  660,  121,  650
1001,  124,  672, 1181,  663
1002,  672,  128,  676, 1181
1003,  663, 1181, 1182,  664
1004, 1181,  676,  677, 1182
1005,  664, 1182, 1183,  665
1006, 1182,  677,  678, 1183
1007,  665, 1183,  679,  126
1008, 1183,  678,  129,  679
*Nset, nset=section_all, generate
    1,  1183,     1
*Elset, elset=section_all, generate
    1,  1008,     1
*Nset, nset=set_body_heat_00
  121,  123,  124,  128,  650,  660,  661,  662,  672,  673,  674,  675, 1178, 1179, 1180
*Elset, elset=set_body_heat_00, generate
  993,  1000,     1
*Nset, nset=set_body_heat_01
  118,  120,  121,  123,  637,  647,  648,  649,  650,  651,  652,  653, 1157, 1158, 1159
*Elset, elset=set_body_heat_01, generate
 953,  960,    1
*Nset, nset=set_body_heat_02
  115,  117,  118,  120,  624,  634,  635,  636,  637,  638,  639,  640, 1145, 1146, 1147
*Elset, elset=set_body_heat_02, generate
 929,  936,    1
*Nset, nset=set_body_heat_03
  112,  114,  115,  117,  611,  621,  622,  623,  624,  625,  626,  627, 1133, 1134, 1135
*Elset, elset=set_body_heat_03, generate
 905,  912,    1
*Nset, nset=set_body_heat_04
  109,  111,  112,  114,  598,  608,  609,  610,  611,  612,  613,  614, 1121, 1122, 1123
*Elset, elset=set_body_heat_04, generate
 881,  888,    1
*Nset, nset=set_body_heat_05
  106,  108,  109,  111,  585,  595,  596,  597,  598,  599,  600,  601, 1109, 1110, 1111
*Elset, elset=set_body_heat_05, generate
 857,  864,    1
*Nset, nset=set_body_heat_06
  103,  105,  106,  108,  572,  582,  583,  584,  585,  586,  587,  588, 1097, 1098, 1099
*Elset, elset=set_body_heat_06, generate
 833,  840,    1
*Nset, nset=set_body_heat_07
  100,  102,  103,  105,  559,  569,  570,  571,  572,  573,  574,  575, 1085, 1086, 1087
*Elset, elset=set_body_heat_07, generate
 809,  816,    1
*Nset, nset=set_body_heat_08
   97,   99,  100,  102,  546,  556,  557,  558,  559,  560,  561,  562, 1073, 1074, 1075
*Elset, elset=set_body_heat_08, generate
 785,  792,    1
*Nset, nset=set_body_heat_09
   94,   96,   97,   99,  533,  543,  544,  545,  546,  547,  548,  549, 1061, 1062, 1063
*Elset, elset=set_body_heat_09, generate
 761,  768,    1
*Nset, nset=set_body_heat_10
   91,   93,   94,   96,  520,  530,  531,  532,  533,  534,  535,  536, 1049, 1050, 1051
*Elset, elset=set_body_heat_10, generate
 737,  744,    1
*Nset, nset=set_body_heat_11
   88,   90,   91,   93,  507,  517,  518,  519,  520,  521,  522,  523, 1037, 1038, 1039
*Elset, elset=set_body_heat_11, generate
 713,  720,    1
*Nset, nset=set_body_heat_12
   85,   87,   88,   90,  494,  504,  505,  506,  507,  508,  509,  510, 1025, 1026, 1027
*Elset, elset=set_body_heat_12, generate
 689,  696,    1
*Nset, nset=set_body_heat_13
   82,   84,   85,   87,  481,  491,  492,  493,  494,  495,  496,  497, 1013, 1014, 1015
*Elset, elset=set_body_heat_13, generate
 665,  672,    1
*Nset, nset=set_body_heat_14
   79,   81,   82,   84,  468,  478,  479,  480,  481,  482,  483,  484, 1001, 1002, 1003
*Elset, elset=set_body_heat_14, generate
 641,  648,    1
*Nset, nset=set_body_heat_15
  76,  78,  79,  81, 455, 465, 466, 467, 468, 469, 470, 471, 989, 990, 991
*Elset, elset=set_body_heat_15, generate
 617,  624,    1
*Nset, nset=set_body_heat_16
  73,  75,  76,  78, 442, 452, 453, 454, 455, 456, 457, 458, 977, 978, 979
*Elset, elset=set_body_heat_16, generate
 593,  600,    1
*Nset, nset=set_body_heat_17
  70,  72,  73,  75, 429, 439, 440, 441, 442, 443, 444, 445, 965, 966, 967
*Elset, elset=set_body_heat_17, generate
 569,  576,    1
*Nset, nset=set_body_heat_18
  67,  69,  70,  72, 416, 426, 427, 428, 429, 430, 431, 432, 953, 954, 955
*Elset, elset=set_body_heat_18, generate
 545,  552,    1
*Nset, nset=set_body_heat_19
  64,  66,  67,  69, 403, 413, 414, 415, 416, 417, 418, 419, 941, 942, 943
*Elset, elset=set_body_heat_19, generate
 521,  528,    1
*Nset, nset=set_body_heat_20
  61,  63,  64,  66, 390, 400, 401, 402, 403, 404, 405, 406, 929, 930, 931
*Elset, elset=set_body_heat_20, generate
 497,  504,    1
*Nset, nset=set_body_heat_21
  58,  60,  61,  63, 377, 387, 388, 389, 390, 391, 392, 393, 917, 918, 919
*Elset, elset=set_body_heat_21, generate
 473,  480,    1
*Nset, nset=set_body_heat_22
  55,  57,  58,  60, 364, 374, 375, 376, 377, 378, 379, 380, 905, 906, 907
*Elset, elset=set_body_heat_22, generate
 449,  456,    1
*Nset, nset=set_body_heat_23
  52,  54,  55,  57, 351, 361, 362, 363, 364, 365, 366, 367, 893, 894, 895
*Elset, elset=set_body_heat_23, generate
 425,  432,    1
*Nset, nset=set_body_heat_24
  49,  51,  52,  54, 338, 348, 349, 350, 351, 352, 353, 354, 881, 882, 883
*Elset, elset=set_body_heat_24, generate
 401,  408,    1
*Nset, nset=set_body_heat_25
  46,  48,  49,  51, 325, 335, 336, 337, 338, 339, 340, 341, 869, 870, 871
*Elset, elset=set_body_heat_25, generate
 377,  384,    1
*Nset, nset=set_body_heat_26
  43,  45,  46,  48, 312, 322, 323, 324, 325, 326, 327, 328, 857, 858, 859
*Elset, elset=set_body_heat_26, generate
 353,  360,    1
*Nset, nset=set_body_heat_27
  40,  42,  43,  45, 299, 309, 310, 311, 312, 313, 314, 315, 845, 846, 847
*Elset, elset=set_body_heat_27, generate
 329,  336,    1
*Nset, nset=set_body_heat_28
  37,  39,  40,  42, 286, 296, 297, 298, 299, 300, 301, 302, 833, 834, 835
*Elset, elset=set_body_heat_28, generate
 305,  312,    1
*Nset, nset=set_body_heat_29
  34,  36,  37,  39, 273, 283, 284, 285, 286, 287, 288, 289, 821, 822, 823
*Elset, elset=set_body_heat_29, generate
 281,  288,    1
*Nset, nset=set_body_heat_30
  31,  33,  34,  36, 260, 270, 271, 272, 273, 274, 275, 276, 809, 810, 811
*Elset, elset=set_body_heat_30, generate
 257,  264,    1
*Nset, nset=set_body_heat_31
  28,  30,  31,  33, 247, 257, 258, 259, 260, 261, 262, 263, 797, 798, 799
*Elset, elset=set_body_heat_31, generate
 233,  240,    1
*Nset, nset=set_body_heat_32
  25,  27,  28,  30, 234, 244, 245, 246, 247, 248, 249, 250, 785, 786, 787
*Elset, elset=set_body_heat_32, generate
 209,  216,    1
*Nset, nset=set_body_heat_33
  22,  24,  25,  27, 221, 231, 232, 233, 234, 235, 236, 237, 773, 774, 775
*Elset, elset=set_body_heat_33, generate
 185,  192,    1
*Nset, nset=set_body_heat_34
  19,  21,  22,  24, 208, 218, 219, 220, 221, 222, 223, 224, 761, 762, 763
*Elset, elset=set_body_heat_34, generate
 161,  168,    1
*Nset, nset=set_body_heat_35
  16,  18,  19,  21, 195, 205, 206, 207, 208, 209, 210, 211, 749, 750, 751
*Elset, elset=set_body_heat_35, generate
 137,  144,    1
*Nset, nset=set_body_heat_36
  13,  15,  16,  18, 182, 192, 193, 194, 195, 196, 197, 198, 737, 738, 739
*Elset, elset=set_body_heat_36, generate
 113,  120,    1
*Nset, nset=set_body_heat_37
  10,  12,  13,  15, 169, 179, 180, 181, 182, 183, 184, 185, 725, 726, 727
*Elset, elset=set_body_heat_37, generate
 89,  96,   1
*Nset, nset=set_body_heat_38
   7,   9,  10,  12, 156, 160, 161, 162, 169, 170, 171, 172, 713, 714, 715
*Elset, elset=set_body_heat_38, generate
 65,  72,   1
*Nset, nset=set_body_heat_39
   1,   5,   7,   9, 142, 153, 154, 155, 156, 157, 158, 159, 701, 702, 703
*Elset, elset=set_body_heat_39, generate
 41,  48,   1
*Elset, elset=_surf_external_all_S2, internal
    4,    8,   12,   16,   28,   32,   36,   40,   76,   80,   84,   88,  100,  104,  108,  112
  124,  128,  132,  136,  148,  152,  156,  160,  172,  176,  180,  184,  196,  200,  204,  208
  220,  224,  228,  232,  244,  248,  252,  256,  268,  272,  276,  280,  292,  296,  300,  304
  316,  320,  324,  328,  340,  344,  348,  352,  364,  368,  372,  376,  388,  392,  396,  400
  412,  416,  420,  424,  436,  440,  444,  448,  460,  464,  468,  472,  484,  488,  492,  496
  508,  512,  516,  520,  532,  536,  540,  544,  556,  560,  564,  568,  580,  584,  588,  592
  604,  608,  612,  616,  628,  632,  636,  640,  652,  656,  660,  664,  676,  680,  684,  688
  700,  704,  708,  712,  724,  728,  732,  736,  748,  752,  756,  760,  772,  776,  780,  784
  796,  800,  804,  808,  820,  824,  828,  832,  844,  848,  852,  856,  868,  872,  876,  880
  892,  896,  900,  904,  916,  920,  924,  928,  940,  944,  948,  952,  964,  968,  972,  976
  980,  984,  988,  992, 1002, 1004, 1006, 1008
*Elset, elset=_surf_external_all_S3, internal
   13,   14,   15,   16,   23,   24,  989,  990,  991,  992, 1007, 1008
*Elset, elset=_surf_external_all_S4, internal
  17,  19,  21,  23,  41,  43,  45,  47,  49,  53,  57,  61,  65,  67,  69,  71
  89,  91,  93,  95, 113, 115, 117, 119, 137, 139, 141, 143, 161, 163, 165, 167
 185, 187, 189, 191, 209, 211, 213, 215, 233, 235, 237, 239, 257, 259, 261, 263
 281, 283, 285, 287, 305, 307, 309, 311, 329, 331, 333, 335, 353, 355, 357, 359
 377, 379, 381, 383, 401, 403, 405, 407, 425, 427, 429, 431, 449, 451, 453, 455
 473, 475, 477, 479, 497, 499, 501, 503, 521, 523, 525, 527, 545, 547, 549, 551
 569, 571, 573, 575, 593, 595, 597, 599, 617, 619, 621, 623, 641, 643, 645, 647
 665, 667, 669, 671, 689, 691, 693, 695, 713, 715, 717, 719, 737, 739, 741, 743
 761, 763, 765, 767, 785, 787, 789, 791, 809, 811, 813, 815, 833, 835, 837, 839
 857, 859, 861, 863, 881, 883, 885, 887, 905, 907, 909, 911, 929, 931, 933, 935
 953, 955, 957, 959, 993, 995, 997, 999
*Surface, type=ELEMENT, name=surf_external_all
_surf_external_all_S2, S2
_surf_external_all_S3, S3
_surf_external_all_S4, S4
** Section: property_section_all
*Solid Section, elset=section_all, material="SS316L For AM"
,
*End Part
**  
**
** ASSEMBLY
**
*Assembly, name=Assembly
**  
*Instance, name=inst_plate, part=part_plate
*End Instance
**  
*Nset, nset=_PickedSet4, internal, instance=inst_plate
 127,
*Nset, nset=_PickedSet5, internal, instance=inst_plate
 3,
*End Assembly
** 
** MATERIALS
** 
** Material property of AISI Type 316L Steel in Additive Manufacturing
** 
*Material, name="SS316L For AM"
*Conductivity
  14.,  20.
  16., 100.
  17., 200.
  19., 400.
 21.5, 600.
  24., 800.
 26.5,1000.
  29.,1200.
  31.,1375.
  29.,1400.
  29.,1723.
  29.,3000.
*Density
7980.,  20.
7950., 100.
7920., 200.
7860., 400.
7800., 600.
7740., 800.
7680.,1000.
7620.,1200.
7580.,1375.
7450.,1400.
7300.,1723.
7200.,3000.
*Elastic
 2.08e+11,  0.3,  20.
 2.02e+11,  0.3, 100.
 1.94e+11,  0.3, 200.
 1.78e+11,  0.3, 400.
 1.62e+11,  0.3, 600.
 1.42e+11,  0.3, 800.
 1.12e+11,  0.3,1000.
  7.5e+10,  0.3,1200.
  1.5e+10,  0.3,1375.
    1e+08,  0.3,1400.
    1e+07,  0.3,1723.
    1e+06,  0.3,3000.
*Expansion
 1.48e-05,  20.
  1.6e-05, 100.
 1.68e-05, 200.
 1.78e-05, 400.
 1.87e-05, 600.
 1.96e-05, 800.
 2.02e-05,1000.
 2.08e-05,1200.
 2.15e-05,1375.
  2.2e-05,1400.
  2.2e-05,1723.
  2.2e-05,3000.
*Latent Heat
256000.,1375.,1400.
*Plastic
 5.8e+08,   0.,  20.
 5.3e+08,   0., 100.
 4.8e+08,   0., 200.
 4.1e+08,   0., 400.
 3.5e+08,   0., 600.
 2.1e+08,   0., 800.
   9e+07,   0.,1000.
   3e+07,   0.,1200.
   2e+06,   0.,1375.
  10000.,   0.,1400.
   5000.,   0.,1723.
   1000.,   0.,3000.
*Specific Heat
450.,  20.
480., 100.
505., 200.
540., 400.
570., 600.
600., 800.
635.,1000.
670.,1200.
700.,1375.
750.,1400.
760.,1723.
800.,3000.
** 
** PHYSICAL CONSTANTS
** 
*Physical Constants, absolute zero=-173.15, stefan boltzmann=5.67e-08
** 
** BOUNDARY CONDITIONS
** 
** Name: bc_point_xy Type: Displacement/Rotation
*Boundary
_PickedSet4, 1, 1
_PickedSet4, 2, 2
** Name: bc_point_y Type: Displacement/Rotation
*Boundary
_PickedSet5, 2, 2
** 
** PREDEFINED FIELDS
** 
** Name: predefined_temperature_all   Type: Temperature
*Initial Conditions, type=TEMPERATURE
inst_plate.section_all, 20.
** ----------------------------------------------------------------
** 
** STEP: step_scan_00
** 
*Step, name=step_scan_00, nlgeom=YES, inc=999999
*Coupled Temperature-displacement, creep=none, deltmx=400.
0.001, 0.2, 2e-30, 0.01
** 
** LOADS
** 
** Name: load_body_hflux_00   Type: Body heat flux
*Dflux
inst_plate.set_body_heat_37, BF, 8e+10
** 
** INTERACTIONS
** 
** Interaction: film_external_cooling
*Sfilm
inst_plate.surf_external_all, F, 20., 46.5
** Interaction: rad_external_ambient
*Sradiate
inst_plate.surf_external_all, R, 20., 0.285
** 
** OUTPUT REQUESTS
** 
*Restart, write, frequency=0
** 
** FIELD OUTPUT: F-Output-1
** 
*Output, field
*Node Output
NT, RF, U
*Element Output, directions=YES
HFL, PEEQ, S
** 
** HISTORY OUTPUT: H-Output-1
** 
*Output, history
*Energy Output
ALLAE, ALLIE, ALLKE, ALLPD, ALLSD, ALLSE, ALLWK, ETOTAL
*End Step
** ----------------------------------------------------------------
** 
** STEP: step_cool_00
** 
*Step, name=step_cool_00, nlgeom=YES, inc=999999
*Coupled Temperature-displacement, creep=none, deltmx=400.
0.1, 3.4, 3.4e-30, 0.2
** 
** LOADS
** 
** Name: load_body_hflux_00   Type: Body heat flux
*Dflux, op=NEW
** 
** OUTPUT REQUESTS
** 
*Restart, write, frequency=0
** 
** FIELD OUTPUT: F-Output-1
** 
*Output, field
*Node Output
NT, RF, U
*Element Output, directions=YES
HFL, PEEQ, S
** 
** HISTORY OUTPUT: H-Output-1
** 
*Output, history
*Energy Output
ALLAE, ALLIE, ALLKE, ALLPD, ALLSD, ALLSE, ALLWK, ETOTAL
*End Step
** ----------------------------------------------------------------
** 
** STEP: step_scan_01
** 
*Step, name=step_scan_01, nlgeom=YES, inc=999999
*Coupled Temperature-displacement, creep=none, deltmx=400.
0.001, 0.2, 2e-30, 0.01
** 
** LOADS
** 
** Name: load_body_hflux_01   Type: Body heat flux
*Dflux
inst_plate.set_body_heat_28, BF, 8e+10
** 
** OUTPUT REQUESTS
** 
*Restart, write, frequency=0
** 
** FIELD OUTPUT: F-Output-1
** 
*Output, field
*Node Output
NT, RF, U
*Element Output, directions=YES
HFL, PEEQ, S
** 
** HISTORY OUTPUT: H-Output-1
** 
*Output, history
*Energy Output
ALLAE, ALLIE, ALLKE, ALLPD, ALLSD, ALLSE, ALLWK, ETOTAL
*End Step
** ----------------------------------------------------------------
** 
** STEP: step_cool_01
** 
*Step, name=step_cool_01, nlgeom=YES, inc=999999
*Coupled Temperature-displacement, creep=none, deltmx=400.
0.1, 3.4, 3.4e-30, 0.2
** 
** LOADS
** 
** Name: load_body_hflux_01   Type: Body heat flux
*Dflux, op=NEW
** 
** OUTPUT REQUESTS
** 
*Restart, write, frequency=0
** 
** FIELD OUTPUT: F-Output-1
** 
*Output, field
*Node Output
NT, RF, U
*Element Output, directions=YES
HFL, PEEQ, S
** 
** HISTORY OUTPUT: H-Output-1
** 
*Output, history
*Energy Output
ALLAE, ALLIE, ALLKE, ALLPD, ALLSD, ALLSE, ALLWK, ETOTAL
*End Step
** ----------------------------------------------------------------
** 
** STEP: step_scan_02
** 
*Step, name=step_scan_02, nlgeom=YES, inc=999999
*Coupled Temperature-displacement, creep=none, deltmx=400.
0.001, 0.2, 2e-30, 0.01
** 
** LOADS
** 
** Name: load_body_hflux_02   Type: Body heat flux
*Dflux
inst_plate.set_body_heat_17, BF, 8e+10
** 
** OUTPUT REQUESTS
** 
*Restart, write, frequency=0
** 
** FIELD OUTPUT: F-Output-1
** 
*Output, field
*Node Output
NT, RF, U
*Element Output, directions=YES
HFL, PEEQ, S
** 
** HISTORY OUTPUT: H-Output-1
** 
*Output, history
*Energy Output
ALLAE, ALLIE, ALLKE, ALLPD, ALLSD, ALLSE, ALLWK, ETOTAL
*End Step
** ----------------------------------------------------------------
** 
** STEP: step_cool_02
** 
*Step, name=step_cool_02, nlgeom=YES, inc=999999
*Coupled Temperature-displacement, creep=none, deltmx=400.
0.1, 3.4, 3.4e-30, 0.2
** 
** LOADS
** 
** Name: load_body_hflux_02   Type: Body heat flux
*Dflux, op=NEW
** 
** OUTPUT REQUESTS
** 
*Restart, write, frequency=0
** 
** FIELD OUTPUT: F-Output-1
** 
*Output, field
*Node Output
NT, RF, U
*Element Output, directions=YES
HFL, PEEQ, S
** 
** HISTORY OUTPUT: H-Output-1
** 
*Output, history
*Energy Output
ALLAE, ALLIE, ALLKE, ALLPD, ALLSD, ALLSE, ALLWK, ETOTAL
*End Step
** ----------------------------------------------------------------
** 
** STEP: step_scan_03
** 
*Step, name=step_scan_03, nlgeom=YES, inc=999999
*Coupled Temperature-displacement, creep=none, deltmx=400.
0.001, 0.2, 2e-30, 0.01
** 
** LOADS
** 
** Name: load_body_hflux_03   Type: Body heat flux
*Dflux
inst_plate.set_body_heat_24, BF, 8e+10
** 
** OUTPUT REQUESTS
** 
*Restart, write, frequency=0
** 
** FIELD OUTPUT: F-Output-1
** 
*Output, field
*Node Output
NT, RF, U
*Element Output, directions=YES
HFL, PEEQ, S
** 
** HISTORY OUTPUT: H-Output-1
** 
*Output, history
*Energy Output
ALLAE, ALLIE, ALLKE, ALLPD, ALLSD, ALLSE, ALLWK, ETOTAL
*End Step
** ----------------------------------------------------------------
** 
** STEP: step_cool_03
** 
*Step, name=step_cool_03, nlgeom=YES, inc=999999
*Coupled Temperature-displacement, creep=none, deltmx=400.
0.1, 3.4, 3.4e-30, 0.2
** 
** LOADS
** 
** Name: load_body_hflux_03   Type: Body heat flux
*Dflux, op=NEW
** 
** OUTPUT REQUESTS
** 
*Restart, write, frequency=0
** 
** FIELD OUTPUT: F-Output-1
** 
*Output, field
*Node Output
NT, RF, U
*Element Output, directions=YES
HFL, PEEQ, S
** 
** HISTORY OUTPUT: H-Output-1
** 
*Output, history
*Energy Output
ALLAE, ALLIE, ALLKE, ALLPD, ALLSD, ALLSE, ALLWK, ETOTAL
*End Step
** ----------------------------------------------------------------
** 
** STEP: step_scan_04
** 
*Step, name=step_scan_04, nlgeom=YES, inc=999999
*Coupled Temperature-displacement, creep=none, deltmx=400.
0.001, 0.2, 2e-30, 0.01
** 
** LOADS
** 
** Name: load_body_hflux_04   Type: Body heat flux
*Dflux
inst_plate.set_body_heat_29, BF, 8e+10
** 
** OUTPUT REQUESTS
** 
*Restart, write, frequency=0
** 
** FIELD OUTPUT: F-Output-1
** 
*Output, field
*Node Output
NT, RF, U
*Element Output, directions=YES
HFL, PEEQ, S
** 
** HISTORY OUTPUT: H-Output-1
** 
*Output, history
*Energy Output
ALLAE, ALLIE, ALLKE, ALLPD, ALLSD, ALLSE, ALLWK, ETOTAL
*End Step
** ----------------------------------------------------------------
** 
** STEP: step_cool_04
** 
*Step, name=step_cool_04, nlgeom=YES, inc=999999
*Coupled Temperature-displacement, creep=none, deltmx=400.
0.1, 3.4, 3.4e-30, 0.2
** 
** LOADS
** 
** Name: load_body_hflux_04   Type: Body heat flux
*Dflux, op=NEW
** 
** OUTPUT REQUESTS
** 
*Restart, write, frequency=0
** 
** FIELD OUTPUT: F-Output-1
** 
*Output, field
*Node Output
NT, RF, U
*Element Output, directions=YES
HFL, PEEQ, S
** 
** HISTORY OUTPUT: H-Output-1
** 
*Output, history
*Energy Output
ALLAE, ALLIE, ALLKE, ALLPD, ALLSD, ALLSE, ALLWK, ETOTAL
*End Step
** ----------------------------------------------------------------
** 
** STEP: step_scan_05
** 
*Step, name=step_scan_05, nlgeom=YES, inc=999999
*Coupled Temperature-displacement, creep=none, deltmx=400.
0.001, 0.2, 2e-30, 0.01
** 
** LOADS
** 
** Name: load_body_hflux_05   Type: Body heat flux
*Dflux
inst_plate.set_body_heat_18, BF, 8e+10
** 
** OUTPUT REQUESTS
** 
*Restart, write, frequency=0
** 
** FIELD OUTPUT: F-Output-1
** 
*Output, field
*Node Output
NT, RF, U
*Element Output, directions=YES
HFL, PEEQ, S
** 
** HISTORY OUTPUT: H-Output-1
** 
*Output, history
*Energy Output
ALLAE, ALLIE, ALLKE, ALLPD, ALLSD, ALLSE, ALLWK, ETOTAL
*End Step
** ----------------------------------------------------------------
** 
** STEP: step_cool_05
** 
*Step, name=step_cool_05, nlgeom=YES, inc=999999
*Coupled Temperature-displacement, creep=none, deltmx=400.
0.1, 3.4, 3.4e-30, 0.2
** 
** LOADS
** 
** Name: load_body_hflux_05   Type: Body heat flux
*Dflux, op=NEW
** 
** OUTPUT REQUESTS
** 
*Restart, write, frequency=0
** 
** FIELD OUTPUT: F-Output-1
** 
*Output, field
*Node Output
NT, RF, U
*Element Output, directions=YES
HFL, PEEQ, S
** 
** HISTORY OUTPUT: H-Output-1
** 
*Output, history
*Energy Output
ALLAE, ALLIE, ALLKE, ALLPD, ALLSD, ALLSE, ALLWK, ETOTAL
*End Step
** ----------------------------------------------------------------
** 
** STEP: step_scan_06
** 
*Step, name=step_scan_06, nlgeom=YES, inc=999999
*Coupled Temperature-displacement, creep=none, deltmx=400.
0.001, 0.2, 2e-30, 0.01
** 
** LOADS
** 
** Name: load_body_hflux_06   Type: Body heat flux
*Dflux
inst_plate.set_body_heat_39, BF, 8e+10
** 
** OUTPUT REQUESTS
** 
*Restart, write, frequency=0
** 
** FIELD OUTPUT: F-Output-1
** 
*Output, field
*Node Output
NT, RF, U
*Element Output, directions=YES
HFL, PEEQ, S
** 
** HISTORY OUTPUT: H-Output-1
** 
*Output, history
*Energy Output
ALLAE, ALLIE, ALLKE, ALLPD, ALLSD, ALLSE, ALLWK, ETOTAL
*End Step
** ----------------------------------------------------------------
** 
** STEP: step_cool_06
** 
*Step, name=step_cool_06, nlgeom=YES, inc=999999
*Coupled Temperature-displacement, creep=none, deltmx=400.
0.1, 3.4, 3.4e-30, 0.2
** 
** LOADS
** 
** Name: load_body_hflux_06   Type: Body heat flux
*Dflux, op=NEW
** 
** OUTPUT REQUESTS
** 
*Restart, write, frequency=0
** 
** FIELD OUTPUT: F-Output-1
** 
*Output, field
*Node Output
NT, RF, U
*Element Output, directions=YES
HFL, PEEQ, S
** 
** HISTORY OUTPUT: H-Output-1
** 
*Output, history
*Energy Output
ALLAE, ALLIE, ALLKE, ALLPD, ALLSD, ALLSE, ALLWK, ETOTAL
*End Step
** ----------------------------------------------------------------
** 
** STEP: step_scan_07
** 
*Step, name=step_scan_07, nlgeom=YES, inc=999999
*Coupled Temperature-displacement, creep=none, deltmx=400.
0.001, 0.2, 2e-30, 0.01
** 
** LOADS
** 
** Name: load_body_hflux_07   Type: Body heat flux
*Dflux
inst_plate.set_body_heat_32, BF, 8e+10
** 
** OUTPUT REQUESTS
** 
*Restart, write, frequency=0
** 
** FIELD OUTPUT: F-Output-1
** 
*Output, field
*Node Output
NT, RF, U
*Element Output, directions=YES
HFL, PEEQ, S
** 
** HISTORY OUTPUT: H-Output-1
** 
*Output, history
*Energy Output
ALLAE, ALLIE, ALLKE, ALLPD, ALLSD, ALLSE, ALLWK, ETOTAL
*End Step
** ----------------------------------------------------------------
** 
** STEP: step_cool_07
** 
*Step, name=step_cool_07, nlgeom=YES, inc=999999
*Coupled Temperature-displacement, creep=none, deltmx=400.
0.1, 3.4, 3.4e-30, 0.2
** 
** LOADS
** 
** Name: load_body_hflux_07   Type: Body heat flux
*Dflux, op=NEW
** 
** OUTPUT REQUESTS
** 
*Restart, write, frequency=0
** 
** FIELD OUTPUT: F-Output-1
** 
*Output, field
*Node Output
NT, RF, U
*Element Output, directions=YES
HFL, PEEQ, S
** 
** HISTORY OUTPUT: H-Output-1
** 
*Output, history
*Energy Output
ALLAE, ALLIE, ALLKE, ALLPD, ALLSD, ALLSE, ALLWK, ETOTAL
*End Step
** ----------------------------------------------------------------
** 
** STEP: step_scan_08
** 
*Step, name=step_scan_08, nlgeom=YES, inc=999999
*Coupled Temperature-displacement, creep=none, deltmx=400.
0.001, 0.2, 2e-30, 0.01
** 
** LOADS
** 
** Name: load_body_hflux_08   Type: Body heat flux
*Dflux
inst_plate.set_body_heat_07, BF, 8e+10
** 
** OUTPUT REQUESTS
** 
*Restart, write, frequency=0
** 
** FIELD OUTPUT: F-Output-1
** 
*Output, field
*Node Output
NT, RF, U
*Element Output, directions=YES
HFL, PEEQ, S
** 
** HISTORY OUTPUT: H-Output-1
** 
*Output, history
*Energy Output
ALLAE, ALLIE, ALLKE, ALLPD, ALLSD, ALLSE, ALLWK, ETOTAL
*End Step
** ----------------------------------------------------------------
** 
** STEP: step_cool_08
** 
*Step, name=step_cool_08, nlgeom=YES, inc=999999
*Coupled Temperature-displacement, creep=none, deltmx=400.
0.1, 3.4, 3.4e-30, 0.2
** 
** LOADS
** 
** Name: load_body_hflux_08   Type: Body heat flux
*Dflux, op=NEW
** 
** OUTPUT REQUESTS
** 
*Restart, write, frequency=0
** 
** FIELD OUTPUT: F-Output-1
** 
*Output, field
*Node Output
NT, RF, U
*Element Output, directions=YES
HFL, PEEQ, S
** 
** HISTORY OUTPUT: H-Output-1
** 
*Output, history
*Energy Output
ALLAE, ALLIE, ALLKE, ALLPD, ALLSD, ALLSE, ALLWK, ETOTAL
*End Step
** ----------------------------------------------------------------
** 
** STEP: step_scan_09
** 
*Step, name=step_scan_09, nlgeom=YES, inc=999999
*Coupled Temperature-displacement, creep=none, deltmx=400.
0.001, 0.2, 2e-30, 0.01
** 
** LOADS
** 
** Name: load_body_hflux_09   Type: Body heat flux
*Dflux
inst_plate.set_body_heat_34, BF, 8e+10
** 
** OUTPUT REQUESTS
** 
*Restart, write, frequency=0
** 
** FIELD OUTPUT: F-Output-1
** 
*Output, field
*Node Output
NT, RF, U
*Element Output, directions=YES
HFL, PEEQ, S
** 
** HISTORY OUTPUT: H-Output-1
** 
*Output, history
*Energy Output
ALLAE, ALLIE, ALLKE, ALLPD, ALLSD, ALLSE, ALLWK, ETOTAL
*End Step
** ----------------------------------------------------------------
** 
** STEP: step_cool_09
** 
*Step, name=step_cool_09, nlgeom=YES, inc=999999
*Coupled Temperature-displacement, creep=none, deltmx=400.
0.1, 3.4, 3.4e-30, 0.2
** 
** LOADS
** 
** Name: load_body_hflux_09   Type: Body heat flux
*Dflux, op=NEW
** 
** OUTPUT REQUESTS
** 
*Restart, write, frequency=0
** 
** FIELD OUTPUT: F-Output-1
** 
*Output, field
*Node Output
NT, RF, U
*Element Output, directions=YES
HFL, PEEQ, S
** 
** HISTORY OUTPUT: H-Output-1
** 
*Output, history
*Energy Output
ALLAE, ALLIE, ALLKE, ALLPD, ALLSD, ALLSE, ALLWK, ETOTAL
*End Step
** ----------------------------------------------------------------
** 
** STEP: step_scan_10
** 
*Step, name=step_scan_10, nlgeom=YES, inc=999999
*Coupled Temperature-displacement, creep=none, deltmx=400.
0.001, 0.2, 2e-30, 0.01
** 
** LOADS
** 
** Name: load_body_hflux_10   Type: Body heat flux
*Dflux
inst_plate.set_body_heat_33, BF, 8e+10
** 
** OUTPUT REQUESTS
** 
*Restart, write, frequency=0
** 
** FIELD OUTPUT: F-Output-1
** 
*Output, field
*Node Output
NT, RF, U
*Element Output, directions=YES
HFL, PEEQ, S
** 
** HISTORY OUTPUT: H-Output-1
** 
*Output, history
*Energy Output
ALLAE, ALLIE, ALLKE, ALLPD, ALLSD, ALLSE, ALLWK, ETOTAL
*End Step
** ----------------------------------------------------------------
** 
** STEP: step_cool_10
** 
*Step, name=step_cool_10, nlgeom=YES, inc=999999
*Coupled Temperature-displacement, creep=none, deltmx=400.
0.1, 3.4, 3.4e-30, 0.2
** 
** LOADS
** 
** Name: load_body_hflux_10   Type: Body heat flux
*Dflux, op=NEW
** 
** OUTPUT REQUESTS
** 
*Restart, write, frequency=0
** 
** FIELD OUTPUT: F-Output-1
** 
*Output, field
*Node Output
NT, RF, U
*Element Output, directions=YES
HFL, PEEQ, S
** 
** HISTORY OUTPUT: H-Output-1
** 
*Output, history
*Energy Output
ALLAE, ALLIE, ALLKE, ALLPD, ALLSD, ALLSE, ALLWK, ETOTAL
*End Step
** ----------------------------------------------------------------
** 
** STEP: step_scan_11
** 
*Step, name=step_scan_11, nlgeom=YES, inc=999999
*Coupled Temperature-displacement, creep=none, deltmx=400.
0.001, 0.2, 2e-30, 0.01
** 
** LOADS
** 
** Name: load_body_hflux_11   Type: Body heat flux
*Dflux
inst_plate.set_body_heat_14, BF, 8e+10
** 
** OUTPUT REQUESTS
** 
*Restart, write, frequency=0
** 
** FIELD OUTPUT: F-Output-1
** 
*Output, field
*Node Output
NT, RF, U
*Element Output, directions=YES
HFL, PEEQ, S
** 
** HISTORY OUTPUT: H-Output-1
** 
*Output, history
*Energy Output
ALLAE, ALLIE, ALLKE, ALLPD, ALLSD, ALLSE, ALLWK, ETOTAL
*End Step
** ----------------------------------------------------------------
** 
** STEP: step_cool_11
** 
*Step, name=step_cool_11, nlgeom=YES, inc=999999
*Coupled Temperature-displacement, creep=none, deltmx=400.
0.1, 3.4, 3.4e-30, 0.2
** 
** LOADS
** 
** Name: load_body_hflux_11   Type: Body heat flux
*Dflux, op=NEW
** 
** OUTPUT REQUESTS
** 
*Restart, write, frequency=0
** 
** FIELD OUTPUT: F-Output-1
** 
*Output, field
*Node Output
NT, RF, U
*Element Output, directions=YES
HFL, PEEQ, S
** 
** HISTORY OUTPUT: H-Output-1
** 
*Output, history
*Energy Output
ALLAE, ALLIE, ALLKE, ALLPD, ALLSD, ALLSE, ALLWK, ETOTAL
*End Step
** ----------------------------------------------------------------
** 
** STEP: step_scan_12
** 
*Step, name=step_scan_12, nlgeom=YES, inc=999999
*Coupled Temperature-displacement, creep=none, deltmx=400.
0.001, 0.2, 2e-30, 0.01
** 
** LOADS
** 
** Name: load_body_hflux_12   Type: Body heat flux
*Dflux
inst_plate.set_body_heat_09, BF, 8e+10
** 
** OUTPUT REQUESTS
** 
*Restart, write, frequency=0
** 
** FIELD OUTPUT: F-Output-1
** 
*Output, field
*Node Output
NT, RF, U
*Element Output, directions=YES
HFL, PEEQ, S
** 
** HISTORY OUTPUT: H-Output-1
** 
*Output, history
*Energy Output
ALLAE, ALLIE, ALLKE, ALLPD, ALLSD, ALLSE, ALLWK, ETOTAL
*End Step
** ----------------------------------------------------------------
** 
** STEP: step_cool_12
** 
*Step, name=step_cool_12, nlgeom=YES, inc=999999
*Coupled Temperature-displacement, creep=none, deltmx=400.
0.1, 3.4, 3.4e-30, 0.2
** 
** LOADS
** 
** Name: load_body_hflux_12   Type: Body heat flux
*Dflux, op=NEW
** 
** OUTPUT REQUESTS
** 
*Restart, write, frequency=0
** 
** FIELD OUTPUT: F-Output-1
** 
*Output, field
*Node Output
NT, RF, U
*Element Output, directions=YES
HFL, PEEQ, S
** 
** HISTORY OUTPUT: H-Output-1
** 
*Output, history
*Energy Output
ALLAE, ALLIE, ALLKE, ALLPD, ALLSD, ALLSE, ALLWK, ETOTAL
*End Step
** ----------------------------------------------------------------
** 
** STEP: step_scan_13
** 
*Step, name=step_scan_13, nlgeom=YES, inc=999999
*Coupled Temperature-displacement, creep=none, deltmx=400.
0.001, 0.2, 2e-30, 0.01
** 
** LOADS
** 
** Name: load_body_hflux_13   Type: Body heat flux
*Dflux
inst_plate.set_body_heat_08, BF, 8e+10
** 
** OUTPUT REQUESTS
** 
*Restart, write, frequency=0
** 
** FIELD OUTPUT: F-Output-1
** 
*Output, field
*Node Output
NT, RF, U
*Element Output, directions=YES
HFL, PEEQ, S
** 
** HISTORY OUTPUT: H-Output-1
** 
*Output, history
*Energy Output
ALLAE, ALLIE, ALLKE, ALLPD, ALLSD, ALLSE, ALLWK, ETOTAL
*End Step
** ----------------------------------------------------------------
** 
** STEP: step_cool_13
** 
*Step, name=step_cool_13, nlgeom=YES, inc=999999
*Coupled Temperature-displacement, creep=none, deltmx=400.
0.1, 3.4, 3.4e-30, 0.2
** 
** LOADS
** 
** Name: load_body_hflux_13   Type: Body heat flux
*Dflux, op=NEW
** 
** OUTPUT REQUESTS
** 
*Restart, write, frequency=0
** 
** FIELD OUTPUT: F-Output-1
** 
*Output, field
*Node Output
NT, RF, U
*Element Output, directions=YES
HFL, PEEQ, S
** 
** HISTORY OUTPUT: H-Output-1
** 
*Output, history
*Energy Output
ALLAE, ALLIE, ALLKE, ALLPD, ALLSD, ALLSE, ALLWK, ETOTAL
*End Step
** ----------------------------------------------------------------
** 
** STEP: step_scan_14
** 
*Step, name=step_scan_14, nlgeom=YES, inc=999999
*Coupled Temperature-displacement, creep=none, deltmx=400.
0.001, 0.2, 2e-30, 0.01
** 
** LOADS
** 
** Name: load_body_hflux_14   Type: Body heat flux
*Dflux
inst_plate.set_body_heat_11, BF, 8e+10
** 
** OUTPUT REQUESTS
** 
*Restart, write, frequency=0
** 
** FIELD OUTPUT: F-Output-1
** 
*Output, field
*Node Output
NT, RF, U
*Element Output, directions=YES
HFL, PEEQ, S
** 
** HISTORY OUTPUT: H-Output-1
** 
*Output, history
*Energy Output
ALLAE, ALLIE, ALLKE, ALLPD, ALLSD, ALLSE, ALLWK, ETOTAL
*End Step
** ----------------------------------------------------------------
** 
** STEP: step_cool_14
** 
*Step, name=step_cool_14, nlgeom=YES, inc=999999
*Coupled Temperature-displacement, creep=none, deltmx=400.
0.1, 3.4, 3.4e-30, 0.2
** 
** LOADS
** 
** Name: load_body_hflux_14   Type: Body heat flux
*Dflux, op=NEW
** 
** OUTPUT REQUESTS
** 
*Restart, write, frequency=0
** 
** FIELD OUTPUT: F-Output-1
** 
*Output, field
*Node Output
NT, RF, U
*Element Output, directions=YES
HFL, PEEQ, S
** 
** HISTORY OUTPUT: H-Output-1
** 
*Output, history
*Energy Output
ALLAE, ALLIE, ALLKE, ALLPD, ALLSD, ALLSE, ALLWK, ETOTAL
*End Step
** ----------------------------------------------------------------
** 
** STEP: step_scan_15
** 
*Step, name=step_scan_15, nlgeom=YES, inc=999999
*Coupled Temperature-displacement, creep=none, deltmx=400.
0.001, 0.2, 2e-30, 0.01
** 
** LOADS
** 
** Name: load_body_hflux_15   Type: Body heat flux
*Dflux
inst_plate.set_body_heat_16, BF, 8e+10
** 
** OUTPUT REQUESTS
** 
*Restart, write, frequency=0
** 
** FIELD OUTPUT: F-Output-1
** 
*Output, field
*Node Output
NT, RF, U
*Element Output, directions=YES
HFL, PEEQ, S
** 
** HISTORY OUTPUT: H-Output-1
** 
*Output, history
*Energy Output
ALLAE, ALLIE, ALLKE, ALLPD, ALLSD, ALLSE, ALLWK, ETOTAL
*End Step
** ----------------------------------------------------------------
** 
** STEP: step_cool_15
** 
*Step, name=step_cool_15, nlgeom=YES, inc=999999
*Coupled Temperature-displacement, creep=none, deltmx=400.
0.1, 3.4, 3.4e-30, 0.2
** 
** LOADS
** 
** Name: load_body_hflux_15   Type: Body heat flux
*Dflux, op=NEW
** 
** OUTPUT REQUESTS
** 
*Restart, write, frequency=0
** 
** FIELD OUTPUT: F-Output-1
** 
*Output, field
*Node Output
NT, RF, U
*Element Output, directions=YES
HFL, PEEQ, S
** 
** HISTORY OUTPUT: H-Output-1
** 
*Output, history
*Energy Output
ALLAE, ALLIE, ALLKE, ALLPD, ALLSD, ALLSE, ALLWK, ETOTAL
*End Step
** ----------------------------------------------------------------
** 
** STEP: step_scan_16
** 
*Step, name=step_scan_16, nlgeom=YES, inc=999999
*Coupled Temperature-displacement, creep=none, deltmx=400.
0.001, 0.2, 2e-30, 0.01
** 
** LOADS
** 
** Name: load_body_hflux_16   Type: Body heat flux
*Dflux
inst_plate.set_body_heat_05, BF, 8e+10
** 
** OUTPUT REQUESTS
** 
*Restart, write, frequency=0
** 
** FIELD OUTPUT: F-Output-1
** 
*Output, field
*Node Output
NT, RF, U
*Element Output, directions=YES
HFL, PEEQ, S
** 
** HISTORY OUTPUT: H-Output-1
** 
*Output, history
*Energy Output
ALLAE, ALLIE, ALLKE, ALLPD, ALLSD, ALLSE, ALLWK, ETOTAL
*End Step
** ----------------------------------------------------------------
** 
** STEP: step_cool_16
** 
*Step, name=step_cool_16, nlgeom=YES, inc=999999
*Coupled Temperature-displacement, creep=none, deltmx=400.
0.1, 3.4, 3.4e-30, 0.2
** 
** LOADS
** 
** Name: load_body_hflux_16   Type: Body heat flux
*Dflux, op=NEW
** 
** OUTPUT REQUESTS
** 
*Restart, write, frequency=0
** 
** FIELD OUTPUT: F-Output-1
** 
*Output, field
*Node Output
NT, RF, U
*Element Output, directions=YES
HFL, PEEQ, S
** 
** HISTORY OUTPUT: H-Output-1
** 
*Output, history
*Energy Output
ALLAE, ALLIE, ALLKE, ALLPD, ALLSD, ALLSE, ALLWK, ETOTAL
*End Step
** ----------------------------------------------------------------
** 
** STEP: step_scan_17
** 
*Step, name=step_scan_17, nlgeom=YES, inc=999999
*Coupled Temperature-displacement, creep=none, deltmx=400.
0.001, 0.2, 2e-30, 0.01
** 
** LOADS
** 
** Name: load_body_hflux_17   Type: Body heat flux
*Dflux
inst_plate.set_body_heat_12, BF, 8e+10
** 
** OUTPUT REQUESTS
** 
*Restart, write, frequency=0
** 
** FIELD OUTPUT: F-Output-1
** 
*Output, field
*Node Output
NT, RF, U
*Element Output, directions=YES
HFL, PEEQ, S
** 
** HISTORY OUTPUT: H-Output-1
** 
*Output, history
*Energy Output
ALLAE, ALLIE, ALLKE, ALLPD, ALLSD, ALLSE, ALLWK, ETOTAL
*End Step
** ----------------------------------------------------------------
** 
** STEP: step_cool_17
** 
*Step, name=step_cool_17, nlgeom=YES, inc=999999
*Coupled Temperature-displacement, creep=none, deltmx=400.
0.1, 3.4, 3.4e-30, 0.2
** 
** LOADS
** 
** Name: load_body_hflux_17   Type: Body heat flux
*Dflux, op=NEW
** 
** OUTPUT REQUESTS
** 
*Restart, write, frequency=0
** 
** FIELD OUTPUT: F-Output-1
** 
*Output, field
*Node Output
NT, RF, U
*Element Output, directions=YES
HFL, PEEQ, S
** 
** HISTORY OUTPUT: H-Output-1
** 
*Output, history
*Energy Output
ALLAE, ALLIE, ALLKE, ALLPD, ALLSD, ALLSE, ALLWK, ETOTAL
*End Step
** ----------------------------------------------------------------
** 
** STEP: step_scan_18
** 
*Step, name=step_scan_18, nlgeom=YES, inc=999999
*Coupled Temperature-displacement, creep=none, deltmx=400.
0.001, 0.2, 2e-30, 0.01
** 
** LOADS
** 
** Name: load_body_hflux_18   Type: Body heat flux
*Dflux
inst_plate.set_body_heat_13, BF, 8e+10
** 
** OUTPUT REQUESTS
** 
*Restart, write, frequency=0
** 
** FIELD OUTPUT: F-Output-1
** 
*Output, field
*Node Output
NT, RF, U
*Element Output, directions=YES
HFL, PEEQ, S
** 
** HISTORY OUTPUT: H-Output-1
** 
*Output, history
*Energy Output
ALLAE, ALLIE, ALLKE, ALLPD, ALLSD, ALLSE, ALLWK, ETOTAL
*End Step
** ----------------------------------------------------------------
** 
** STEP: step_cool_18
** 
*Step, name=step_cool_18, nlgeom=YES, inc=999999
*Coupled Temperature-displacement, creep=none, deltmx=400.
0.1, 3.4, 3.4e-30, 0.2
** 
** LOADS
** 
** Name: load_body_hflux_18   Type: Body heat flux
*Dflux, op=NEW
** 
** OUTPUT REQUESTS
** 
*Restart, write, frequency=0
** 
** FIELD OUTPUT: F-Output-1
** 
*Output, field
*Node Output
NT, RF, U
*Element Output, directions=YES
HFL, PEEQ, S
** 
** HISTORY OUTPUT: H-Output-1
** 
*Output, history
*Energy Output
ALLAE, ALLIE, ALLKE, ALLPD, ALLSD, ALLSE, ALLWK, ETOTAL
*End Step
** ----------------------------------------------------------------
** 
** STEP: step_scan_19
** 
*Step, name=step_scan_19, nlgeom=YES, inc=999999
*Coupled Temperature-displacement, creep=none, deltmx=400.
0.001, 0.2, 2e-30, 0.01
** 
** LOADS
** 
** Name: load_body_hflux_19   Type: Body heat flux
*Dflux
inst_plate.set_body_heat_30, BF, 8e+10
** 
** OUTPUT REQUESTS
** 
*Restart, write, frequency=0
** 
** FIELD OUTPUT: F-Output-1
** 
*Output, field
*Node Output
NT, RF, U
*Element Output, directions=YES
HFL, PEEQ, S
** 
** HISTORY OUTPUT: H-Output-1
** 
*Output, history
*Energy Output
ALLAE, ALLIE, ALLKE, ALLPD, ALLSD, ALLSE, ALLWK, ETOTAL
*End Step
** ----------------------------------------------------------------
** 
** STEP: step_cool_19
** 
*Step, name=step_cool_19, nlgeom=YES, inc=999999
*Coupled Temperature-displacement, creep=none, deltmx=400.
0.1, 3.4, 3.4e-30, 0.2
** 
** LOADS
** 
** Name: load_body_hflux_19   Type: Body heat flux
*Dflux, op=NEW
** 
** OUTPUT REQUESTS
** 
*Restart, write, frequency=0
** 
** FIELD OUTPUT: F-Output-1
** 
*Output, field
*Node Output
NT, RF, U
*Element Output, directions=YES
HFL, PEEQ, S
** 
** HISTORY OUTPUT: H-Output-1
** 
*Output, history
*Energy Output
ALLAE, ALLIE, ALLKE, ALLPD, ALLSD, ALLSE, ALLWK, ETOTAL
*End Step
** ----------------------------------------------------------------
** 
** STEP: step_scan_20
** 
*Step, name=step_scan_20, nlgeom=YES, inc=999999
*Coupled Temperature-displacement, creep=none, deltmx=400.
0.001, 0.2, 2e-30, 0.01
** 
** LOADS
** 
** Name: load_body_hflux_20   Type: Body heat flux
*Dflux
inst_plate.set_body_heat_31, BF, 8e+10
** 
** OUTPUT REQUESTS
** 
*Restart, write, frequency=0
** 
** FIELD OUTPUT: F-Output-1
** 
*Output, field
*Node Output
NT, RF, U
*Element Output, directions=YES
HFL, PEEQ, S
** 
** HISTORY OUTPUT: H-Output-1
** 
*Output, history
*Energy Output
ALLAE, ALLIE, ALLKE, ALLPD, ALLSD, ALLSE, ALLWK, ETOTAL
*End Step
** ----------------------------------------------------------------
** 
** STEP: step_cool_20
** 
*Step, name=step_cool_20, nlgeom=YES, inc=999999
*Coupled Temperature-displacement, creep=none, deltmx=400.
0.1, 3.4, 3.4e-30, 0.2
** 
** LOADS
** 
** Name: load_body_hflux_20   Type: Body heat flux
*Dflux, op=NEW
** 
** OUTPUT REQUESTS
** 
*Restart, write, frequency=0
** 
** FIELD OUTPUT: F-Output-1
** 
*Output, field
*Node Output
NT, RF, U
*Element Output, directions=YES
HFL, PEEQ, S
** 
** HISTORY OUTPUT: H-Output-1
** 
*Output, history
*Energy Output
ALLAE, ALLIE, ALLKE, ALLPD, ALLSD, ALLSE, ALLWK, ETOTAL
*End Step
** ----------------------------------------------------------------
** 
** STEP: step_scan_21
** 
*Step, name=step_scan_21, nlgeom=YES, inc=999999
*Coupled Temperature-displacement, creep=none, deltmx=400.
0.001, 0.2, 2e-30, 0.01
** 
** LOADS
** 
** Name: load_body_hflux_21   Type: Body heat flux
*Dflux
inst_plate.set_body_heat_10, BF, 8e+10
** 
** OUTPUT REQUESTS
** 
*Restart, write, frequency=0
** 
** FIELD OUTPUT: F-Output-1
** 
*Output, field
*Node Output
NT, RF, U
*Element Output, directions=YES
HFL, PEEQ, S
** 
** HISTORY OUTPUT: H-Output-1
** 
*Output, history
*Energy Output
ALLAE, ALLIE, ALLKE, ALLPD, ALLSD, ALLSE, ALLWK, ETOTAL
*End Step
** ----------------------------------------------------------------
** 
** STEP: step_cool_21
** 
*Step, name=step_cool_21, nlgeom=YES, inc=999999
*Coupled Temperature-displacement, creep=none, deltmx=400.
0.1, 3.4, 3.4e-30, 0.2
** 
** LOADS
** 
** Name: load_body_hflux_21   Type: Body heat flux
*Dflux, op=NEW
** 
** OUTPUT REQUESTS
** 
*Restart, write, frequency=0
** 
** FIELD OUTPUT: F-Output-1
** 
*Output, field
*Node Output
NT, RF, U
*Element Output, directions=YES
HFL, PEEQ, S
** 
** HISTORY OUTPUT: H-Output-1
** 
*Output, history
*Energy Output
ALLAE, ALLIE, ALLKE, ALLPD, ALLSD, ALLSE, ALLWK, ETOTAL
*End Step
** ----------------------------------------------------------------
** 
** STEP: step_scan_22
** 
*Step, name=step_scan_22, nlgeom=YES, inc=999999
*Coupled Temperature-displacement, creep=none, deltmx=400.
0.001, 0.2, 2e-30, 0.01
** 
** LOADS
** 
** Name: load_body_hflux_22   Type: Body heat flux
*Dflux
inst_plate.set_body_heat_19, BF, 8e+10
** 
** OUTPUT REQUESTS
** 
*Restart, write, frequency=0
** 
** FIELD OUTPUT: F-Output-1
** 
*Output, field
*Node Output
NT, RF, U
*Element Output, directions=YES
HFL, PEEQ, S
** 
** HISTORY OUTPUT: H-Output-1
** 
*Output, history
*Energy Output
ALLAE, ALLIE, ALLKE, ALLPD, ALLSD, ALLSE, ALLWK, ETOTAL
*End Step
** ----------------------------------------------------------------
** 
** STEP: step_cool_22
** 
*Step, name=step_cool_22, nlgeom=YES, inc=999999
*Coupled Temperature-displacement, creep=none, deltmx=400.
0.1, 3.4, 3.4e-30, 0.2
** 
** LOADS
** 
** Name: load_body_hflux_22   Type: Body heat flux
*Dflux, op=NEW
** 
** OUTPUT REQUESTS
** 
*Restart, write, frequency=0
** 
** FIELD OUTPUT: F-Output-1
** 
*Output, field
*Node Output
NT, RF, U
*Element Output, directions=YES
HFL, PEEQ, S
** 
** HISTORY OUTPUT: H-Output-1
** 
*Output, history
*Energy Output
ALLAE, ALLIE, ALLKE, ALLPD, ALLSD, ALLSE, ALLWK, ETOTAL
*End Step
** ----------------------------------------------------------------
** 
** STEP: step_scan_23
** 
*Step, name=step_scan_23, nlgeom=YES, inc=999999
*Coupled Temperature-displacement, creep=none, deltmx=400.
0.001, 0.2, 2e-30, 0.01
** 
** LOADS
** 
** Name: load_body_hflux_23   Type: Body heat flux
*Dflux
inst_plate.set_body_heat_04, BF, 8e+10
** 
** OUTPUT REQUESTS
** 
*Restart, write, frequency=0
** 
** FIELD OUTPUT: F-Output-1
** 
*Output, field
*Node Output
NT, RF, U
*Element Output, directions=YES
HFL, PEEQ, S
** 
** HISTORY OUTPUT: H-Output-1
** 
*Output, history
*Energy Output
ALLAE, ALLIE, ALLKE, ALLPD, ALLSD, ALLSE, ALLWK, ETOTAL
*End Step
** ----------------------------------------------------------------
** 
** STEP: step_cool_23
** 
*Step, name=step_cool_23, nlgeom=YES, inc=999999
*Coupled Temperature-displacement, creep=none, deltmx=400.
0.1, 3.4, 3.4e-30, 0.2
** 
** LOADS
** 
** Name: load_body_hflux_23   Type: Body heat flux
*Dflux, op=NEW
** 
** OUTPUT REQUESTS
** 
*Restart, write, frequency=0
** 
** FIELD OUTPUT: F-Output-1
** 
*Output, field
*Node Output
NT, RF, U
*Element Output, directions=YES
HFL, PEEQ, S
** 
** HISTORY OUTPUT: H-Output-1
** 
*Output, history
*Energy Output
ALLAE, ALLIE, ALLKE, ALLPD, ALLSD, ALLSE, ALLWK, ETOTAL
*End Step
** ----------------------------------------------------------------
** 
** STEP: step_scan_24
** 
*Step, name=step_scan_24, nlgeom=YES, inc=999999
*Coupled Temperature-displacement, creep=none, deltmx=400.
0.001, 0.2, 2e-30, 0.01
** 
** LOADS
** 
** Name: load_body_hflux_24   Type: Body heat flux
*Dflux
inst_plate.set_body_heat_01, BF, 8e+10
** 
** OUTPUT REQUESTS
** 
*Restart, write, frequency=0
** 
** FIELD OUTPUT: F-Output-1
** 
*Output, field
*Node Output
NT, RF, U
*Element Output, directions=YES
HFL, PEEQ, S
** 
** HISTORY OUTPUT: H-Output-1
** 
*Output, history
*Energy Output
ALLAE, ALLIE, ALLKE, ALLPD, ALLSD, ALLSE, ALLWK, ETOTAL
*End Step
** ----------------------------------------------------------------
** 
** STEP: step_cool_24
** 
*Step, name=step_cool_24, nlgeom=YES, inc=999999
*Coupled Temperature-displacement, creep=none, deltmx=400.
0.1, 3.4, 3.4e-30, 0.2
** 
** LOADS
** 
** Name: load_body_hflux_24   Type: Body heat flux
*Dflux, op=NEW
** 
** OUTPUT REQUESTS
** 
*Restart, write, frequency=0
** 
** FIELD OUTPUT: F-Output-1
** 
*Output, field
*Node Output
NT, RF, U
*Element Output, directions=YES
HFL, PEEQ, S
** 
** HISTORY OUTPUT: H-Output-1
** 
*Output, history
*Energy Output
ALLAE, ALLIE, ALLKE, ALLPD, ALLSD, ALLSE, ALLWK, ETOTAL
*End Step
** ----------------------------------------------------------------
** 
** STEP: step_scan_25
** 
*Step, name=step_scan_25, nlgeom=YES, inc=999999
*Coupled Temperature-displacement, creep=none, deltmx=400.
0.001, 0.2, 2e-30, 0.01
** 
** LOADS
** 
** Name: load_body_hflux_25   Type: Body heat flux
*Dflux
inst_plate.set_body_heat_22, BF, 8e+10
** 
** OUTPUT REQUESTS
** 
*Restart, write, frequency=0
** 
** FIELD OUTPUT: F-Output-1
** 
*Output, field
*Node Output
NT, RF, U
*Element Output, directions=YES
HFL, PEEQ, S
** 
** HISTORY OUTPUT: H-Output-1
** 
*Output, history
*Energy Output
ALLAE, ALLIE, ALLKE, ALLPD, ALLSD, ALLSE, ALLWK, ETOTAL
*End Step
** ----------------------------------------------------------------
** 
** STEP: step_cool_25
** 
*Step, name=step_cool_25, nlgeom=YES, inc=999999
*Coupled Temperature-displacement, creep=none, deltmx=400.
0.1, 3.4, 3.4e-30, 0.2
** 
** LOADS
** 
** Name: load_body_hflux_25   Type: Body heat flux
*Dflux, op=NEW
** 
** OUTPUT REQUESTS
** 
*Restart, write, frequency=0
** 
** FIELD OUTPUT: F-Output-1
** 
*Output, field
*Node Output
NT, RF, U
*Element Output, directions=YES
HFL, PEEQ, S
** 
** HISTORY OUTPUT: H-Output-1
** 
*Output, history
*Energy Output
ALLAE, ALLIE, ALLKE, ALLPD, ALLSD, ALLSE, ALLWK, ETOTAL
*End Step
** ----------------------------------------------------------------
** 
** STEP: step_scan_26
** 
*Step, name=step_scan_26, nlgeom=YES, inc=999999
*Coupled Temperature-displacement, creep=none, deltmx=400.
0.001, 0.2, 2e-30, 0.01
** 
** LOADS
** 
** Name: load_body_hflux_26   Type: Body heat flux
*Dflux
inst_plate.set_body_heat_23, BF, 8e+10
** 
** OUTPUT REQUESTS
** 
*Restart, write, frequency=0
** 
** FIELD OUTPUT: F-Output-1
** 
*Output, field
*Node Output
NT, RF, U
*Element Output, directions=YES
HFL, PEEQ, S
** 
** HISTORY OUTPUT: H-Output-1
** 
*Output, history
*Energy Output
ALLAE, ALLIE, ALLKE, ALLPD, ALLSD, ALLSE, ALLWK, ETOTAL
*End Step
** ----------------------------------------------------------------
** 
** STEP: step_cool_26
** 
*Step, name=step_cool_26, nlgeom=YES, inc=999999
*Coupled Temperature-displacement, creep=none, deltmx=400.
0.1, 3.4, 3.4e-30, 0.2
** 
** LOADS
** 
** Name: load_body_hflux_26   Type: Body heat flux
*Dflux, op=NEW
** 
** OUTPUT REQUESTS
** 
*Restart, write, frequency=0
** 
** FIELD OUTPUT: F-Output-1
** 
*Output, field
*Node Output
NT, RF, U
*Element Output, directions=YES
HFL, PEEQ, S
** 
** HISTORY OUTPUT: H-Output-1
** 
*Output, history
*Energy Output
ALLAE, ALLIE, ALLKE, ALLPD, ALLSD, ALLSE, ALLWK, ETOTAL
*End Step
** ----------------------------------------------------------------
** 
** STEP: step_scan_27
** 
*Step, name=step_scan_27, nlgeom=YES, inc=999999
*Coupled Temperature-displacement, creep=none, deltmx=400.
0.001, 0.2, 2e-30, 0.01
** 
** LOADS
** 
** Name: load_body_hflux_27   Type: Body heat flux
*Dflux
inst_plate.set_body_heat_20, BF, 8e+10
** 
** OUTPUT REQUESTS
** 
*Restart, write, frequency=0
** 
** FIELD OUTPUT: F-Output-1
** 
*Output, field
*Node Output
NT, RF, U
*Element Output, directions=YES
HFL, PEEQ, S
** 
** HISTORY OUTPUT: H-Output-1
** 
*Output, history
*Energy Output
ALLAE, ALLIE, ALLKE, ALLPD, ALLSD, ALLSE, ALLWK, ETOTAL
*End Step
** ----------------------------------------------------------------
** 
** STEP: step_cool_27
** 
*Step, name=step_cool_27, nlgeom=YES, inc=999999
*Coupled Temperature-displacement, creep=none, deltmx=400.
0.1, 3.4, 3.4e-30, 0.2
** 
** LOADS
** 
** Name: load_body_hflux_27   Type: Body heat flux
*Dflux, op=NEW
** 
** OUTPUT REQUESTS
** 
*Restart, write, frequency=0
** 
** FIELD OUTPUT: F-Output-1
** 
*Output, field
*Node Output
NT, RF, U
*Element Output, directions=YES
HFL, PEEQ, S
** 
** HISTORY OUTPUT: H-Output-1
** 
*Output, history
*Energy Output
ALLAE, ALLIE, ALLKE, ALLPD, ALLSD, ALLSE, ALLWK, ETOTAL
*End Step
** ----------------------------------------------------------------
** 
** STEP: step_scan_28
** 
*Step, name=step_scan_28, nlgeom=YES, inc=999999
*Coupled Temperature-displacement, creep=none, deltmx=400.
0.001, 0.2, 2e-30, 0.01
** 
** LOADS
** 
** Name: load_body_hflux_28   Type: Body heat flux
*Dflux
inst_plate.set_body_heat_03, BF, 8e+10
** 
** OUTPUT REQUESTS
** 
*Restart, write, frequency=0
** 
** FIELD OUTPUT: F-Output-1
** 
*Output, field
*Node Output
NT, RF, U
*Element Output, directions=YES
HFL, PEEQ, S
** 
** HISTORY OUTPUT: H-Output-1
** 
*Output, history
*Energy Output
ALLAE, ALLIE, ALLKE, ALLPD, ALLSD, ALLSE, ALLWK, ETOTAL
*End Step
** ----------------------------------------------------------------
** 
** STEP: step_cool_28
** 
*Step, name=step_cool_28, nlgeom=YES, inc=999999
*Coupled Temperature-displacement, creep=none, deltmx=400.
0.1, 3.4, 3.4e-30, 0.2
** 
** LOADS
** 
** Name: load_body_hflux_28   Type: Body heat flux
*Dflux, op=NEW
** 
** OUTPUT REQUESTS
** 
*Restart, write, frequency=0
** 
** FIELD OUTPUT: F-Output-1
** 
*Output, field
*Node Output
NT, RF, U
*Element Output, directions=YES
HFL, PEEQ, S
** 
** HISTORY OUTPUT: H-Output-1
** 
*Output, history
*Energy Output
ALLAE, ALLIE, ALLKE, ALLPD, ALLSD, ALLSE, ALLWK, ETOTAL
*End Step
** ----------------------------------------------------------------
** 
** STEP: step_scan_29
** 
*Step, name=step_scan_29, nlgeom=YES, inc=999999
*Coupled Temperature-displacement, creep=none, deltmx=400.
0.001, 0.2, 2e-30, 0.01
** 
** LOADS
** 
** Name: load_body_hflux_29   Type: Body heat flux
*Dflux
inst_plate.set_body_heat_38, BF, 8e+10
** 
** OUTPUT REQUESTS
** 
*Restart, write, frequency=0
** 
** FIELD OUTPUT: F-Output-1
** 
*Output, field
*Node Output
NT, RF, U
*Element Output, directions=YES
HFL, PEEQ, S
** 
** HISTORY OUTPUT: H-Output-1
** 
*Output, history
*Energy Output
ALLAE, ALLIE, ALLKE, ALLPD, ALLSD, ALLSE, ALLWK, ETOTAL
*End Step
** ----------------------------------------------------------------
** 
** STEP: step_cool_29
** 
*Step, name=step_cool_29, nlgeom=YES, inc=999999
*Coupled Temperature-displacement, creep=none, deltmx=400.
0.1, 3.4, 3.4e-30, 0.2
** 
** LOADS
** 
** Name: load_body_hflux_29   Type: Body heat flux
*Dflux, op=NEW
** 
** OUTPUT REQUESTS
** 
*Restart, write, frequency=0
** 
** FIELD OUTPUT: F-Output-1
** 
*Output, field
*Node Output
NT, RF, U
*Element Output, directions=YES
HFL, PEEQ, S
** 
** HISTORY OUTPUT: H-Output-1
** 
*Output, history
*Energy Output
ALLAE, ALLIE, ALLKE, ALLPD, ALLSD, ALLSE, ALLWK, ETOTAL
*End Step
** ----------------------------------------------------------------
** 
** STEP: step_scan_30
** 
*Step, name=step_scan_30, nlgeom=YES, inc=999999
*Coupled Temperature-displacement, creep=none, deltmx=400.
0.001, 0.2, 2e-30, 0.01
** 
** LOADS
** 
** Name: load_body_hflux_30   Type: Body heat flux
*Dflux
inst_plate.set_body_heat_35, BF, 8e+10
** 
** OUTPUT REQUESTS
** 
*Restart, write, frequency=0
** 
** FIELD OUTPUT: F-Output-1
** 
*Output, field
*Node Output
NT, RF, U
*Element Output, directions=YES
HFL, PEEQ, S
** 
** HISTORY OUTPUT: H-Output-1
** 
*Output, history
*Energy Output
ALLAE, ALLIE, ALLKE, ALLPD, ALLSD, ALLSE, ALLWK, ETOTAL
*End Step
** ----------------------------------------------------------------
** 
** STEP: step_cool_30
** 
*Step, name=step_cool_30, nlgeom=YES, inc=999999
*Coupled Temperature-displacement, creep=none, deltmx=400.
0.1, 3.4, 3.4e-30, 0.2
** 
** LOADS
** 
** Name: load_body_hflux_30   Type: Body heat flux
*Dflux, op=NEW
** 
** OUTPUT REQUESTS
** 
*Restart, write, frequency=0
** 
** FIELD OUTPUT: F-Output-1
** 
*Output, field
*Node Output
NT, RF, U
*Element Output, directions=YES
HFL, PEEQ, S
** 
** HISTORY OUTPUT: H-Output-1
** 
*Output, history
*Energy Output
ALLAE, ALLIE, ALLKE, ALLPD, ALLSD, ALLSE, ALLWK, ETOTAL
*End Step
** ----------------------------------------------------------------
** 
** STEP: step_scan_31
** 
*Step, name=step_scan_31, nlgeom=YES, inc=999999
*Coupled Temperature-displacement, creep=none, deltmx=400.
0.001, 0.2, 2e-30, 0.01
** 
** LOADS
** 
** Name: load_body_hflux_31   Type: Body heat flux
*Dflux
inst_plate.set_body_heat_00, BF, 8e+10
** 
** OUTPUT REQUESTS
** 
*Restart, write, frequency=0
** 
** FIELD OUTPUT: F-Output-1
** 
*Output, field
*Node Output
NT, RF, U
*Element Output, directions=YES
HFL, PEEQ, S
** 
** HISTORY OUTPUT: H-Output-1
** 
*Output, history
*Energy Output
ALLAE, ALLIE, ALLKE, ALLPD, ALLSD, ALLSE, ALLWK, ETOTAL
*End Step
** ----------------------------------------------------------------
** 
** STEP: step_cool_31
** 
*Step, name=step_cool_31, nlgeom=YES, inc=999999
*Coupled Temperature-displacement, creep=none, deltmx=400.
0.1, 3.4, 3.4e-30, 0.2
** 
** LOADS
** 
** Name: load_body_hflux_31   Type: Body heat flux
*Dflux, op=NEW
** 
** OUTPUT REQUESTS
** 
*Restart, write, frequency=0
** 
** FIELD OUTPUT: F-Output-1
** 
*Output, field
*Node Output
NT, RF, U
*Element Output, directions=YES
HFL, PEEQ, S
** 
** HISTORY OUTPUT: H-Output-1
** 
*Output, history
*Energy Output
ALLAE, ALLIE, ALLKE, ALLPD, ALLSD, ALLSE, ALLWK, ETOTAL
*End Step
** ----------------------------------------------------------------
** 
** STEP: step_scan_32
** 
*Step, name=step_scan_32, nlgeom=YES, inc=999999
*Coupled Temperature-displacement, creep=none, deltmx=400.
0.001, 0.2, 2e-30, 0.01
** 
** LOADS
** 
** Name: load_body_hflux_32   Type: Body heat flux
*Dflux
inst_plate.set_body_heat_25, BF, 8e+10
** 
** OUTPUT REQUESTS
** 
*Restart, write, frequency=0
** 
** FIELD OUTPUT: F-Output-1
** 
*Output, field
*Node Output
NT, RF, U
*Element Output, directions=YES
HFL, PEEQ, S
** 
** HISTORY OUTPUT: H-Output-1
** 
*Output, history
*Energy Output
ALLAE, ALLIE, ALLKE, ALLPD, ALLSD, ALLSE, ALLWK, ETOTAL
*End Step
** ----------------------------------------------------------------
** 
** STEP: step_cool_32
** 
*Step, name=step_cool_32, nlgeom=YES, inc=999999
*Coupled Temperature-displacement, creep=none, deltmx=400.
0.1, 3.4, 3.4e-30, 0.2
** 
** LOADS
** 
** Name: load_body_hflux_32   Type: Body heat flux
*Dflux, op=NEW
** 
** OUTPUT REQUESTS
** 
*Restart, write, frequency=0
** 
** FIELD OUTPUT: F-Output-1
** 
*Output, field
*Node Output
NT, RF, U
*Element Output, directions=YES
HFL, PEEQ, S
** 
** HISTORY OUTPUT: H-Output-1
** 
*Output, history
*Energy Output
ALLAE, ALLIE, ALLKE, ALLPD, ALLSD, ALLSE, ALLWK, ETOTAL
*End Step
** ----------------------------------------------------------------
** 
** STEP: step_scan_33
** 
*Step, name=step_scan_33, nlgeom=YES, inc=999999
*Coupled Temperature-displacement, creep=none, deltmx=400.
0.001, 0.2, 2e-30, 0.01
** 
** LOADS
** 
** Name: load_body_hflux_33   Type: Body heat flux
*Dflux
inst_plate.set_body_heat_02, BF, 8e+10
** 
** OUTPUT REQUESTS
** 
*Restart, write, frequency=0
** 
** FIELD OUTPUT: F-Output-1
** 
*Output, field
*Node Output
NT, RF, U
*Element Output, directions=YES
HFL, PEEQ, S
** 
** HISTORY OUTPUT: H-Output-1
** 
*Output, history
*Energy Output
ALLAE, ALLIE, ALLKE, ALLPD, ALLSD, ALLSE, ALLWK, ETOTAL
*End Step
** ----------------------------------------------------------------
** 
** STEP: step_cool_33
** 
*Step, name=step_cool_33, nlgeom=YES, inc=999999
*Coupled Temperature-displacement, creep=none, deltmx=400.
0.1, 3.4, 3.4e-30, 0.2
** 
** LOADS
** 
** Name: load_body_hflux_33   Type: Body heat flux
*Dflux, op=NEW
** 
** OUTPUT REQUESTS
** 
*Restart, write, frequency=0
** 
** FIELD OUTPUT: F-Output-1
** 
*Output, field
*Node Output
NT, RF, U
*Element Output, directions=YES
HFL, PEEQ, S
** 
** HISTORY OUTPUT: H-Output-1
** 
*Output, history
*Energy Output
ALLAE, ALLIE, ALLKE, ALLPD, ALLSD, ALLSE, ALLWK, ETOTAL
*End Step
** ----------------------------------------------------------------
** 
** STEP: step_scan_34
** 
*Step, name=step_scan_34, nlgeom=YES, inc=999999
*Coupled Temperature-displacement, creep=none, deltmx=400.
0.001, 0.2, 2e-30, 0.01
** 
** LOADS
** 
** Name: load_body_hflux_34   Type: Body heat flux
*Dflux
inst_plate.set_body_heat_27, BF, 8e+10
** 
** OUTPUT REQUESTS
** 
*Restart, write, frequency=0
** 
** FIELD OUTPUT: F-Output-1
** 
*Output, field
*Node Output
NT, RF, U
*Element Output, directions=YES
HFL, PEEQ, S
** 
** HISTORY OUTPUT: H-Output-1
** 
*Output, history
*Energy Output
ALLAE, ALLIE, ALLKE, ALLPD, ALLSD, ALLSE, ALLWK, ETOTAL
*End Step
** ----------------------------------------------------------------
** 
** STEP: step_cool_34
** 
*Step, name=step_cool_34, nlgeom=YES, inc=999999
*Coupled Temperature-displacement, creep=none, deltmx=400.
0.1, 3.4, 3.4e-30, 0.2
** 
** LOADS
** 
** Name: load_body_hflux_34   Type: Body heat flux
*Dflux, op=NEW
** 
** OUTPUT REQUESTS
** 
*Restart, write, frequency=0
** 
** FIELD OUTPUT: F-Output-1
** 
*Output, field
*Node Output
NT, RF, U
*Element Output, directions=YES
HFL, PEEQ, S
** 
** HISTORY OUTPUT: H-Output-1
** 
*Output, history
*Energy Output
ALLAE, ALLIE, ALLKE, ALLPD, ALLSD, ALLSE, ALLWK, ETOTAL
*End Step
** ----------------------------------------------------------------
** 
** STEP: step_scan_35
** 
*Step, name=step_scan_35, nlgeom=YES, inc=999999
*Coupled Temperature-displacement, creep=none, deltmx=400.
0.001, 0.2, 2e-30, 0.01
** 
** LOADS
** 
** Name: load_body_hflux_35   Type: Body heat flux
*Dflux
inst_plate.set_body_heat_36, BF, 8e+10
** 
** OUTPUT REQUESTS
** 
*Restart, write, frequency=0
** 
** FIELD OUTPUT: F-Output-1
** 
*Output, field
*Node Output
NT, RF, U
*Element Output, directions=YES
HFL, PEEQ, S
** 
** HISTORY OUTPUT: H-Output-1
** 
*Output, history
*Energy Output
ALLAE, ALLIE, ALLKE, ALLPD, ALLSD, ALLSE, ALLWK, ETOTAL
*End Step
** ----------------------------------------------------------------
** 
** STEP: step_cool_35
** 
*Step, name=step_cool_35, nlgeom=YES, inc=999999
*Coupled Temperature-displacement, creep=none, deltmx=400.
0.1, 3.4, 3.4e-30, 0.2
** 
** LOADS
** 
** Name: load_body_hflux_35   Type: Body heat flux
*Dflux, op=NEW
** 
** OUTPUT REQUESTS
** 
*Restart, write, frequency=0
** 
** FIELD OUTPUT: F-Output-1
** 
*Output, field
*Node Output
NT, RF, U
*Element Output, directions=YES
HFL, PEEQ, S
** 
** HISTORY OUTPUT: H-Output-1
** 
*Output, history
*Energy Output
ALLAE, ALLIE, ALLKE, ALLPD, ALLSD, ALLSE, ALLWK, ETOTAL
*End Step
** ----------------------------------------------------------------
** 
** STEP: step_scan_36
** 
*Step, name=step_scan_36, nlgeom=YES, inc=999999
*Coupled Temperature-displacement, creep=none, deltmx=400.
0.001, 0.2, 2e-30, 0.01
** 
** LOADS
** 
** Name: load_body_hflux_36   Type: Body heat flux
*Dflux
inst_plate.set_body_heat_15, BF, 8e+10
** 
** OUTPUT REQUESTS
** 
*Restart, write, frequency=0
** 
** FIELD OUTPUT: F-Output-1
** 
*Output, field
*Node Output
NT, RF, U
*Element Output, directions=YES
HFL, PEEQ, S
** 
** HISTORY OUTPUT: H-Output-1
** 
*Output, history
*Energy Output
ALLAE, ALLIE, ALLKE, ALLPD, ALLSD, ALLSE, ALLWK, ETOTAL
*End Step
** ----------------------------------------------------------------
** 
** STEP: step_cool_36
** 
*Step, name=step_cool_36, nlgeom=YES, inc=999999
*Coupled Temperature-displacement, creep=none, deltmx=400.
0.1, 3.4, 3.4e-30, 0.2
** 
** LOADS
** 
** Name: load_body_hflux_36   Type: Body heat flux
*Dflux, op=NEW
** 
** OUTPUT REQUESTS
** 
*Restart, write, frequency=0
** 
** FIELD OUTPUT: F-Output-1
** 
*Output, field
*Node Output
NT, RF, U
*Element Output, directions=YES
HFL, PEEQ, S
** 
** HISTORY OUTPUT: H-Output-1
** 
*Output, history
*Energy Output
ALLAE, ALLIE, ALLKE, ALLPD, ALLSD, ALLSE, ALLWK, ETOTAL
*End Step
** ----------------------------------------------------------------
** 
** STEP: step_scan_37
** 
*Step, name=step_scan_37, nlgeom=YES, inc=999999
*Coupled Temperature-displacement, creep=none, deltmx=400.
0.001, 0.2, 2e-30, 0.01
** 
** LOADS
** 
** Name: load_body_hflux_37   Type: Body heat flux
*Dflux
inst_plate.set_body_heat_06, BF, 8e+10
** 
** OUTPUT REQUESTS
** 
*Restart, write, frequency=0
** 
** FIELD OUTPUT: F-Output-1
** 
*Output, field
*Node Output
NT, RF, U
*Element Output, directions=YES
HFL, PEEQ, S
** 
** HISTORY OUTPUT: H-Output-1
** 
*Output, history
*Energy Output
ALLAE, ALLIE, ALLKE, ALLPD, ALLSD, ALLSE, ALLWK, ETOTAL
*End Step
** ----------------------------------------------------------------
** 
** STEP: step_cool_37
** 
*Step, name=step_cool_37, nlgeom=YES, inc=999999
*Coupled Temperature-displacement, creep=none, deltmx=400.
0.1, 3.4, 3.4e-30, 0.2
** 
** LOADS
** 
** Name: load_body_hflux_37   Type: Body heat flux
*Dflux, op=NEW
** 
** OUTPUT REQUESTS
** 
*Restart, write, frequency=0
** 
** FIELD OUTPUT: F-Output-1
** 
*Output, field
*Node Output
NT, RF, U
*Element Output, directions=YES
HFL, PEEQ, S
** 
** HISTORY OUTPUT: H-Output-1
** 
*Output, history
*Energy Output
ALLAE, ALLIE, ALLKE, ALLPD, ALLSD, ALLSE, ALLWK, ETOTAL
*End Step
** ----------------------------------------------------------------
** 
** STEP: step_scan_38
** 
*Step, name=step_scan_38, nlgeom=YES, inc=999999
*Coupled Temperature-displacement, creep=none, deltmx=400.
0.001, 0.2, 2e-30, 0.01
** 
** LOADS
** 
** Name: load_body_hflux_38   Type: Body heat flux
*Dflux
inst_plate.set_body_heat_21, BF, 8e+10
** 
** OUTPUT REQUESTS
** 
*Restart, write, frequency=0
** 
** FIELD OUTPUT: F-Output-1
** 
*Output, field
*Node Output
NT, RF, U
*Element Output, directions=YES
HFL, PEEQ, S
** 
** HISTORY OUTPUT: H-Output-1
** 
*Output, history
*Energy Output
ALLAE, ALLIE, ALLKE, ALLPD, ALLSD, ALLSE, ALLWK, ETOTAL
*End Step
** ----------------------------------------------------------------
** 
** STEP: step_cool_38
** 
*Step, name=step_cool_38, nlgeom=YES, inc=999999
*Coupled Temperature-displacement, creep=none, deltmx=400.
0.1, 3.4, 3.4e-30, 0.2
** 
** LOADS
** 
** Name: load_body_hflux_38   Type: Body heat flux
*Dflux, op=NEW
** 
** OUTPUT REQUESTS
** 
*Restart, write, frequency=0
** 
** FIELD OUTPUT: F-Output-1
** 
*Output, field
*Node Output
NT, RF, U
*Element Output, directions=YES
HFL, PEEQ, S
** 
** HISTORY OUTPUT: H-Output-1
** 
*Output, history
*Energy Output
ALLAE, ALLIE, ALLKE, ALLPD, ALLSD, ALLSE, ALLWK, ETOTAL
*End Step
** ----------------------------------------------------------------
** 
** STEP: step_scan_39
** 
*Step, name=step_scan_39, nlgeom=YES, inc=999999
*Coupled Temperature-displacement, creep=none, deltmx=400.
0.001, 0.2, 2e-30, 0.01
** 
** LOADS
** 
** Name: load_body_hflux_39   Type: Body heat flux
*Dflux
inst_plate.set_body_heat_26, BF, 8e+10
** 
** OUTPUT REQUESTS
** 
*Restart, write, frequency=0
** 
** FIELD OUTPUT: F-Output-1
** 
*Output, field
*Node Output
NT, RF, U
*Element Output, directions=YES
HFL, PEEQ, S
** 
** HISTORY OUTPUT: H-Output-1
** 
*Output, history
*Energy Output
ALLAE, ALLIE, ALLKE, ALLPD, ALLSD, ALLSE, ALLWK, ETOTAL
*End Step
** ----------------------------------------------------------------
** 
** STEP: step_cool_39
** 
*Step, name=step_cool_39, nlgeom=YES, inc=999999
*Coupled Temperature-displacement, creep=none, deltmx=400.
0.1, 3.4, 3.4e-30, 0.2
** 
** LOADS
** 
** Name: load_body_hflux_39   Type: Body heat flux
*Dflux, op=NEW
** 
** OUTPUT REQUESTS
** 
*Restart, write, frequency=0
** 
** FIELD OUTPUT: F-Output-1
** 
*Output, field
*Node Output
NT, RF, U
*Element Output, directions=YES
HFL, PEEQ, S
** 
** HISTORY OUTPUT: H-Output-1
** 
*Output, history
*Energy Output
ALLAE, ALLIE, ALLKE, ALLPD, ALLSD, ALLSE, ALLWK, ETOTAL
*End Step
** ----------------------------------------------------------------
** 
** STEP: step_final_cooling
** 
*Step, name=step_final_cooling, nlgeom=YES, inc=999999
*Coupled Temperature-displacement, creep=none, deltmx=400.
0.01, 1200., 3.4e-30, 60.
** 
** OUTPUT REQUESTS
** 
*Restart, write, frequency=0
** 
** FIELD OUTPUT: F-Output-1
** 
*Output, field
*Node Output
NT, RF, U
*Element Output, directions=YES
HFL, PEEQ, S
** 
** HISTORY OUTPUT: H-Output-1
** 
*Output, history
*Energy Output
ALLAE, ALLIE, ALLKE, ALLPD, ALLSD, ALLSE, ALLWK, ETOTAL
*End Step
